801
Lattice="22.802843369674818 0.0 0.0 -1.1664473677479072 22.97272913066726 0.0 -0.42922649013351144 -0.5680586338044684 22.75975686927861" Properties=species:S:1:pos:R:3:masses:R:1:momenta:R:3:id:I:1:type:I:1:initial_charges:R:1:mmcharges:R:1 comment="LAMMPS data file via write_data, version 29 Aug 2024, timestep = 150001, units = metal" pbc="T T T"
Si       6.75883488       9.96548940      20.37225795      28.08600001       0.73123672      -1.42986125       0.72357113        1        1       2.40000000       2.40000000
Si      10.22698318       7.90738260       7.07099217      28.08600001       0.82995168      -0.10470995      -1.04268417        2        1       2.40000000       2.40000000
Si      13.39328849       1.13659421       1.30638281      28.08600001      -0.84016066      -1.07382921      -0.00891494        3        1       2.40000000       2.40000000
Si      14.18850725       5.54308603      15.94590889      28.08600001       1.33640206      -0.09577717       0.33381338        4        1       2.40000000       2.40000000
Si      -0.44005750      16.62438873      13.14384872      28.08600001      -1.03552900      -0.39269504      -1.18729982        5        1       2.40000000       2.40000000
Si      16.20119818       7.30069238      10.38683670      28.08600001       0.90127616      -0.03124648      -1.25965175        6        1       2.40000000       2.40000000
Si       5.66182180       5.70137345       8.75948302      28.08600001      -1.40270135      -2.17388591       0.25356061        7        1       2.40000000       2.40000000
Si      13.08224537       2.84015859      17.11906712      28.08600001       1.30072747      -0.22127856       0.91382233        8        1       2.40000000       2.40000000
Si      11.30971636      20.44445083      14.16037052      28.08600001      -0.22084865      -0.83994814       1.10098481        9        1       2.40000000       2.40000000
Si      21.48239023       8.53301740       2.44177171      28.08600001      -1.23567797       0.00517311      -0.95397926       10        1       2.40000000       2.40000000
Si       9.82896711      17.39552181       2.17884793      28.08600001      -0.73786310      -0.75873517      -0.17493160       11        1       2.40000000       2.40000000
Si       2.19562009      22.65321367       8.70990604      28.08600001      -1.54201089      -1.29512472      -0.04574668       12        1       2.40000000       2.40000000
Si      17.53569477      11.07259506       4.92033318      28.08600001      -0.10496896      -0.15663372       0.92169665       13        1       2.40000000       2.40000000
Si       5.86611495       1.88793761       0.55864637      28.08600001       0.11309916       0.74710008       1.62351728       14        1       2.40000000       2.40000000
Si       3.81981849      12.19913346       5.95353082      28.08600001      -0.67421529       0.26343908       0.40234085       15        1       2.40000000       2.40000000
Si       6.09828815       4.05140227      21.83646633      28.08600001      -1.62719550       1.37828440       0.06515178       16        1       2.40000000       2.40000000
Si       4.46648324      17.09566120      20.83417765      28.08600001       1.38231791      -0.35340080      -0.53788997       17        1       2.40000000       2.40000000
Si      11.31093364      17.19820455      20.01631195      28.08600001       0.92251526      -0.37393443       0.41642897       18        1       2.40000000       2.40000000
Si      10.54081228       0.14210008       9.27837488      28.08600001      -0.00938799       0.57410319       0.00779552       19        1       2.40000000       2.40000000
Si      18.92805829       6.84280620      21.52134024      28.08600001      -0.03129542       0.53655998       0.63578666       20        1       2.40000000       2.40000000
Si      14.91420686       3.93426818      21.37763815      28.08600001      -0.38631338      -0.54868103       1.37208608       21        1       2.40000000       2.40000000
Si      -0.23762781      10.13519937       6.46160370      28.08600001      -1.18975991       1.23944441      -1.16521418       22        1       2.40000000       2.40000000
Si      10.82111219      15.25841723       4.04941146      28.08600001       0.54950602       0.99698986      -0.33758596       23        1       2.40000000       2.40000000
Si       1.61484010      10.16967766      19.60229015      28.08600001      -0.01401052       0.59594806       0.85839307       24        1       2.40000000       2.40000000
Si      20.95105045       3.55196880      13.48408073      28.08600001      -1.45598730      -1.36242551       0.10098260       25        1       2.40000000       2.40000000
Si      14.10873957       0.28320643      11.99899078      28.08600001      -0.39608930       0.34756677      -0.12588704       26        1       2.40000000       2.40000000
Si       0.00054227       9.92302523      12.34351084      28.08600001      -1.43528160      -0.41261523      -0.54218008       27        1       2.40000000       2.40000000
Si      15.60791775      17.68910013      17.31263615      28.08600001       0.50251908      -1.54577441       0.15415773       28        1       2.40000000       2.40000000
Si       2.55192747       5.16540872       3.49652227      28.08600001       0.63174265      -0.54651723      -0.37535769       29        1       2.40000000       2.40000000
Si       1.83894116       3.37321909       5.90883738      28.08600001       0.15142156       1.04367123       0.42329487       30        1       2.40000000       2.40000000
Si      -0.14996252      12.74408850      16.75053243      28.08600001       0.48557907      -0.38147158       0.20688660       31        1       2.40000000       2.40000000
Si      12.29636252       7.27685756      12.41099275      28.08600001       0.25943955       0.84067037      -0.13917748       32        1       2.40000000       2.40000000
Si       2.45226263       2.88898793      14.05203857      28.08600001      -0.05354391       1.19212318       0.30979173       33        1       2.40000000       2.40000000
Si      15.19014556      10.62403711       1.44054823      28.08600001       0.52229121      -0.36633611       1.16556073       34        1       2.40000000       2.40000000
Si      18.42286506      22.18078831      10.68373781      28.08600001       0.33129890      -0.41313170       0.75835713       35        1       2.40000000       2.40000000
Si       5.62635425       0.41711906       3.23517907      28.08600001       0.33266925       0.35401937      -0.67464370       36        1       2.40000000       2.40000000
Si       2.46809030      19.26703406      13.50281576      28.08600001       0.39988080       1.21227609      -1.31296471       37        1       2.40000000       2.40000000
Si       3.76602775       3.77084327      19.77908265      28.08600001       1.69037249      -0.08410532       0.15240351       38        1       2.40000000       2.40000000
Si      21.80891863       3.34138177      10.49339832      28.08600001       0.50735831      -0.38070827      -0.15499217       39        1       2.40000000       2.40000000
Si       2.19273776      15.55824088      22.18658325      28.08600001       0.33205504       0.09158821      -0.27728553       40        1       2.40000000       2.40000000
Si       3.45805307       8.13940130       3.97402005      28.08600001      -0.24945724      -0.08619962      -0.89738979       41        1       2.40000000       2.40000000
Si      19.87775149       8.82123756      12.91765123      28.08600001       0.10767090      -0.38912504       0.45977615       42        1       2.40000000       2.40000000
Si       9.98920741       2.60417906      17.65485333      28.08600001       1.39977572      -0.75872987      -0.04618956       43        1       2.40000000       2.40000000
Si       5.90593162      13.45902899      11.71642213      28.08600001       0.04566334      -1.04805589      -0.30453802       44        1       2.40000000       2.40000000
Si      14.07117130      19.57991830      12.74021672      28.08600001      -0.87237605       1.28019086       1.37352306       45        1       2.40000000       2.40000000
Si      16.21339610      13.62409546      21.05589589      28.08600001       0.12188360       0.06401461       0.17141832       46        1       2.40000000       2.40000000
Si      21.55258379       0.12795108      20.37218088      28.08600001      -0.70079607      -0.30522444       0.68057598       47        1       2.40000000       2.40000000
Si      11.75948469       6.48118466       1.58727501      28.08600001      -0.02123600      -0.13961277      -0.70923091       48        1       2.40000000       2.40000000
Si      11.09023371      13.41869508       9.65263528      28.08600001      -0.14478987      -0.04359463       0.02502881       49        1       2.40000000       2.40000000
Si      18.13740627       2.42816970      13.28319760      28.08600001      -1.47657758      -0.13465653       0.39446023       50        1       2.40000000       2.40000000
Si       8.07573839      10.05305274       6.30492718      28.08600001       0.76088742       0.08382524       0.10958306       51        1       2.40000000       2.40000000
Si       4.19104909       6.59768989      11.31816894      28.08600001       0.86844779      -0.36826364       0.09594103       52        1       2.40000000       2.40000000
Si      21.94939812       0.03666906       7.63546615      28.08600001      -0.71995596      -0.13053694       1.19550355       53        1       2.40000000       2.40000000
Si       4.92556526      10.97751801      22.64227009      28.08600001      -1.45172732       0.14776291      -0.61655767       54        1       2.40000000       2.40000000
Si      19.91318886      16.99339435      22.68474463      28.08600001       1.39314033      -0.96206264       0.38340718       55        1       2.40000000       2.40000000
Si       6.30863576      21.03204652      17.50862155      28.08600001       1.82697367      -0.17585962       0.46637271       56        1       2.40000000       2.40000000
Si      21.13930203       0.62616180       2.96327972      28.08600001       0.57727840      -1.41453535      -0.12333365       57        1       2.40000000       2.40000000
Si       3.43454454       1.34992690      18.06419338      28.08600001       0.53008874      -0.46917828       0.00802091       58        1       2.40000000       2.40000000
Si      11.59975437      19.12734009       9.32879114      28.08600001       0.17946844      -0.29028853       0.31373813       59        1       2.40000000       2.40000000
Si      11.16707788      22.54973878       6.73328479      28.08600001      -0.84942291      -0.13204067       0.29732208       60        1       2.40000000       2.40000000
Si      21.46154986       8.37555470      22.17518352      28.08600001       1.24155985       0.86443570      -0.03513965       61        1       2.40000000       2.40000000
Si       9.25599478       8.28538699       1.57146499      28.08600001      -1.45654029      -0.49210087       0.23804452       62        1       2.40000000       2.40000000
Si      12.99723043      16.63514317      12.54966325      28.08600001       1.13225530      -1.90351670       0.54472179       63        1       2.40000000       2.40000000
Si      18.97713771      10.64670421      17.88527465      28.08600001       0.95469022       0.54592255      -0.37161214       64        1       2.40000000       2.40000000
Si      11.62460715      20.90856110      22.22829013      28.08600001       0.02862472       0.24508078       1.33810414       65        1       2.40000000       2.40000000
Si       0.94602687       4.64975591       8.65674745      28.08600001      -1.15040319       0.04314497      -1.06650336       66        1       2.40000000       2.40000000
Si       6.90439234       6.88774091      12.68152923      28.08600001       0.66696622       0.37419793       0.13807741       67        1       2.40000000       2.40000000
Si      16.77680505       6.93378622      15.06577586      28.08600001      -1.28924936      -2.76330515       1.35929242       68        1       2.40000000       2.40000000
Si       1.30612621       4.66569549      21.12718517      28.08600001      -0.20052896      -0.10011071      -0.97805524       69        1       2.40000000       2.40000000
Si       7.13654236      12.24046909       8.30075569      28.08600001       0.54794733       0.50421989       0.86487487       70        1       2.40000000       2.40000000
Si      16.86201812       5.82232848      19.51740861      28.08600001      -2.14890115      -0.11792326      -1.44651192       71        1       2.40000000       2.40000000
Si      12.22882842      12.60776663      14.83221525      28.08600001       0.10583928       0.16577089       0.05449481       72        1       2.40000000       2.40000000
Si      17.86250154       9.64911297       0.25145460      28.08600001       0.30190698       0.88156932      -0.21369881       73        1       2.40000000       2.40000000
Si      16.13396624      -0.19272604      17.86991369      28.08600001      -0.24603026       0.03099180      -0.70870606       74        1       2.40000000       2.40000000
Si      10.03314822      10.70071715      15.97086487      28.08600001       0.57123865       0.03692429       0.88453969       75        1       2.40000000       2.40000000
Si      12.19628624      21.57438270      17.03902052      28.08600001       1.20876758      -0.08336516      -0.16826669       76        1       2.40000000       2.40000000
Si      13.76428155      13.01728888      17.45391334      28.08600001      -0.10285954      -0.15557256      -0.60871329       77        1       2.40000000       2.40000000
Si      10.87211902      16.43622894      10.49871524      28.08600001      -1.16045898       0.24555290      -0.03202164       78        1       2.40000000       2.40000000
Si       6.97723002      14.20343673       0.92193925      28.08600001      -1.04733030       0.40190159       1.34336732       79        1       2.40000000       2.40000000
Si      19.68300208       1.76840706       8.84628479      28.08600001       1.55388083       0.20351418       1.22081155       80        1       2.40000000       2.40000000
Si      20.03180806       3.55680565       3.09075538      28.08600001       0.18111100      -0.99846167      -0.66599876       81        1       2.40000000       2.40000000
Si       5.76517736       1.25732599       7.74666002      28.08600001       1.18280509       0.46036120      -0.16213649       82        1       2.40000000       2.40000000
Si       6.98893775      15.38076388      21.02110326      28.08600001       0.84078227       1.84947666      -0.03690040       83        1       2.40000000       2.40000000
Si      12.15029273      -0.47058148      19.76302523      28.08600001       0.06090703      -0.20559127       0.05219302       84        1       2.40000000       2.40000000
Si       5.13862828       9.32837261       6.17369015      28.08600001      -0.37098136       0.95646162      -1.05048941       85        1       2.40000000       2.40000000
Si       9.84033886      10.47311950       3.69635597      28.08600001      -0.31841214       0.25174574      -0.11772400       86        1       2.40000000       2.40000000
Si      -0.25113889      19.24014789      19.92852308      28.08600001      -0.36824281       0.24058563       0.15472446       87        1       2.40000000       2.40000000
Si       9.88001427      13.14892116       1.94660288      28.08600001       1.58239696       0.14336230      -0.38531405       88        1       2.40000000       2.40000000
Si      13.81521712      11.55954388      21.56375102      28.08600001      -1.41998947      -1.73153683       0.63958862       89        1       2.40000000       2.40000000
Si       5.35038464      15.77287784       9.67831651      28.08600001      -1.90515637      -0.65646944      -0.77749170       90        1       2.40000000       2.40000000
Si      17.70433064      21.61475032      17.11987487      28.08600001      -1.08136403       0.43889621       0.16971617       91        1       2.40000000       2.40000000
Si       0.46766306      18.27744875       0.07635446      28.08600001       1.01188058      -1.11407273       0.27097485       92        1       2.40000000       2.40000000
Si       7.73256010      19.31494405       7.57315911      28.08600001       0.61243667       0.57383926       0.36750064       93        1       2.40000000       2.40000000
Si      21.06985711      17.80968361       7.88872027      28.08600001       2.28326238      -0.20747388       1.24449397       94        1       2.40000000       2.40000000
Si      13.85200516      15.66574472       7.34327856      28.08600001       0.62694508      -1.35451617      -1.26358704       95        1       2.40000000       2.40000000
Si      19.47991870      10.79514860       2.62095767      28.08600001      -0.91117719      -0.32475346       0.60819358       96        1       2.40000000       2.40000000
Si       9.81271098       4.76913266       9.90271790      28.08600001       0.72190091      -1.23047060       0.27184238       97        1       2.40000000       2.40000000
Si      16.16514189      14.67107884      18.04406326      28.08600001       0.47440028      -0.88123449      -0.70485345       98        1       2.40000000       2.40000000
Si      14.77842569       6.99908869       7.60274972      28.08600001       0.42555448      -0.18615763       0.58054349       99        1       2.40000000       2.40000000
Si       9.54357826      18.01963628      15.09906023      28.08600001       0.14255554       1.28300610      -0.99579450      100        1       2.40000000       2.40000000
Si      16.38181261      20.46266602       5.00236236      28.08600001      -0.13475203       1.45771085      -1.14551549      101        1       2.40000000       2.40000000
Si      19.58733191      20.31678803      19.42598475      28.08600001       1.97681989       0.03990603       0.33600972      102        1       2.40000000       2.40000000
Si      17.69303154       3.14743868       6.97196524      28.08600001      -0.35957019      -0.58876310      -0.37804394      103        1       2.40000000       2.40000000
Si      13.37079111       4.64072367      13.14811973      28.08600001       0.17753376      -1.57801620       2.18551626      104        1       2.40000000       2.40000000
Si      16.58952752      20.30900822      14.49055525      28.08600001       0.61082478      -0.42054545      -0.07614148      105        1       2.40000000       2.40000000
Si      14.66670318      20.06886467       9.65430153      28.08600001      -0.60394374      -0.10166719      -0.07071220      106        1       2.40000000       2.40000000
Si      10.54471435      19.57745604       6.42545995      28.08600001      -0.81970572      -0.31538043      -0.85820681      107        1       2.40000000       2.40000000
Si      17.58303324      14.93222099      10.95969331      28.08600001      -0.38723106       0.30222493      -1.49427901      108        1       2.40000000       2.40000000
Si      12.91359101       8.68098787       5.83970992      28.08600001      -1.42717814      -0.29910945      -1.08953586      109        1       2.40000000       2.40000000
Si       7.77099363       6.85788037      15.60085648      28.08600001       0.51639977      -0.37765821       0.25168911      110        1       2.40000000       2.40000000
Si      21.64344549      19.35005625       5.19722224      28.08600001       1.31905572       0.28214787      -0.61381158      111        1       2.40000000       2.40000000
Si       6.56421670      15.09286670      16.93944519      28.08600001       1.36395057       0.48880715       0.77803605      112        1       2.40000000       2.40000000
Si      16.28983121       4.44212928      11.75486951      28.08600001      -1.26802501       0.04295168       0.18067227      113        1       2.40000000       2.40000000
Si       8.92138573      13.11700109      17.08925968      28.08600001      -0.73079963       1.58667472      -0.26720746      114        1       2.40000000       2.40000000
Si      16.00102835      22.52742905      12.48709433      28.08600001      -1.09298221      -0.91685598      -1.38213292      115        1       2.40000000       2.40000000
Si       0.80416458       0.63055860      10.15199202      28.08600001      -0.21224758       0.91742933       0.95869666      116        1       2.40000000       2.40000000
Si      14.37460606      20.26454590      21.11381265      28.08600001       0.35866098       0.77653411      -1.10627588      117        1       2.40000000       2.40000000
Si      13.99212840       8.15193569       2.88995576      28.08600001       0.70220360      -0.47594080       0.11785122      118        1       2.40000000       2.40000000
Si      14.34071246      11.53959870      12.80200104      28.08600001       0.42273882       0.04873833      -0.54555200      119        1       2.40000000       2.40000000
Si      16.51797370      22.06360631      22.54048218      28.08600001       0.54158938       0.54652962       0.95667132      120        1       2.40000000       2.40000000
Si      15.75046664       5.65721875       3.63342720      28.08600001       0.81151667      -0.88963455      -0.31997727      121        1       2.40000000       2.40000000
Si      18.13485118       1.58575166      16.35224420      28.08600001      -0.55327814       1.30188437       2.13819860      122        1       2.40000000       2.40000000
Si      15.18612959      12.57369067       3.77374104      28.08600001      -1.28577934      -0.45121624       0.75951518      123        1       2.40000000       2.40000000
Si       3.38482773      16.89350628       4.54643251      28.08600001      -1.06964336       0.09223544      -0.73096615      124        1       2.40000000       2.40000000
Si      17.12351184       0.43307047       5.43846742      28.08600001      -0.18373697       0.24922241      -1.54535566      125        1       2.40000000       2.40000000
Si       6.09225836      17.39266943       5.77765805      28.08600001       0.37757773       0.58489296      -1.24386096      126        1       2.40000000       2.40000000
Si       2.97933603       3.72436083      11.02496407      28.08600001      -0.39259267      -1.87910247       0.75406063      127        1       2.40000000       2.40000000
Si       4.41651306      21.00045085      10.24510300      28.08600001      -0.25655217      -0.18760489      -0.12342615      128        1       2.40000000       2.40000000
Si      21.03590982      22.28370818      12.51385561      28.08600001       0.00852812      -0.74121031      -0.25151150      129        1       2.40000000       2.40000000
Si       9.38259041       2.28975810      14.54563316      28.08600001      -1.03012512      -0.56301724      -0.62966161      130        1       2.40000000       2.40000000
Si      19.94379598      15.99543848      19.64290049      28.08600001      -0.06737135      -0.63574750       0.88333835      131        1       2.40000000       2.40000000
Si      -0.04289033       1.33391842      14.88826878      28.08600001      -0.11595635       0.80630690       0.43979902      132        1       2.40000000       2.40000000
Si      12.50487836      11.56705699       4.91062066      28.08600001      -0.25912061       0.39917946       0.55849276      133        1       2.40000000       2.40000000
Si       7.90648692       4.23177734      19.38317635      28.08600001      -0.84832882      -1.06005392      -0.29866811      134        1       2.40000000       2.40000000
Si      16.39180744       0.76908709       2.26182979      28.08600001       1.11266235       1.03551012      -0.72871313      135        1       2.40000000       2.40000000
Si       5.31481160      15.35439310      14.03505638      28.08600001      -0.72597211      -0.72166548       0.64202280      136        1       2.40000000       2.40000000
Si       5.62269316      14.58550660       7.00002518      28.08600001      -0.20330673       1.19420584       0.23148127      137        1       2.40000000       2.40000000
Si       8.43615519      18.14976237      20.39162559      28.08600001       0.56542066      -0.98899626      -0.01512999      138        1       2.40000000       2.40000000
Si      11.36368979      13.75669578       6.75924943      28.08600001      -0.00476510       0.36013129       1.19052655      139        1       2.40000000       2.40000000
Si       6.64673216       6.74469352       1.24565194      28.08600001      -1.52638202       1.22426676       1.41311453      140        1       2.40000000       2.40000000
Si      18.64183714      20.07214232       0.63865989      28.08600001       1.61148208       0.09407535      -0.58508908      141        1       2.40000000       2.40000000
Si      18.48412655       5.26509538       4.91900573      28.08600001       0.57546353       0.06052155       0.49242850      142        1       2.40000000       2.40000000
Si      12.26489642       2.53484541       5.71248256      28.08600001      -0.57384852       0.68816969      -0.23895843      143        1       2.40000000       2.40000000
Si      13.71344704      10.12138873      18.65341086      28.08600001       2.28912546      -1.53661246      -0.40534168      144        1       2.40000000       2.40000000
Si      21.57571606      14.02349802      11.65760693      28.08600001       0.16034820       1.17902150      -0.96545415      145        1       2.40000000       2.40000000
Si       5.62407818       4.61137082       3.44492585      28.08600001       1.52631224      -1.03743045      -0.22339539      146        1       2.40000000       2.40000000
Si       2.51443128      10.17517206      14.18692823      28.08600001      -0.95529749      -0.15941202       0.21737870      147        1       2.40000000       2.40000000
Si      11.48075002      15.66547197      14.99839618      28.08600001      -1.04372328       0.08621902       0.30887130      148        1       2.40000000       2.40000000
Si       0.25767523       1.67974513      17.99914529      28.08600001      -0.83969673       1.15278025       0.59471099      149        1       2.40000000       2.40000000
Si      13.97601536      12.10743729       9.81283404      28.08600001      -1.20248814       0.38645732       0.48589765      150        1       2.40000000       2.40000000
Si       1.34595377      12.62021138       7.69596695      28.08600001       0.31170370      -0.58028087      -0.17461501      151        1       2.40000000       2.40000000
Si      20.93964129      11.55021678      21.68103192      28.08600001       0.47960958      -0.47358336       1.12176354      152        1       2.40000000       2.40000000
Si      -0.33998850      16.83257018      18.17767320      28.08600001      -0.02249880      -0.14029720       0.88789211      153        1       2.40000000       2.40000000
Si      -0.69265134       9.85949075      17.62853298      28.08600001       0.23474791      -0.31004692      -0.38265444      154        1       2.40000000       2.40000000
Si      14.65343218      15.20088085      10.32905308      28.08600001      -0.19968227       0.83714518      -0.18897235      155        1       2.40000000       2.40000000
Si       9.20488934       0.12439691      19.23996769      28.08600001      -0.27186259      -0.55982780       1.54404384      156        1       2.40000000       2.40000000
Si      14.76125890       4.20332038       6.38097585      28.08600001      -1.66064893      -0.17350445       0.45837398      157        1       2.40000000       2.40000000
Si      19.09119539      20.56267250       3.67762930      28.08600001      -0.42351308      -0.68681837      -0.64654474      158        1       2.40000000       2.40000000
Si       8.29198160       5.54700319       7.15690860      28.08600001      -1.31003465      -1.19905276       0.44516927      159        1       2.40000000       2.40000000
Si       8.41547365      21.53831838       3.30559437      28.08600001       0.21163469       0.27778046       0.81071523      160        1       2.40000000       2.40000000
Si      12.67064122      17.64317833       5.13300964      28.08600001       0.07258108       0.72063960       0.11459438      161        1       2.40000000       2.40000000
Si      17.86685295      10.95734171      20.67609703      28.08600001       0.01758472      -0.51685999       0.14085833      162        1       2.40000000       2.40000000
Si       4.23282200      15.05196697       2.06284128      28.08600001      -0.46090166       0.37591043       0.94507638      163        1       2.40000000       2.40000000
Si       7.99454696       3.83413251      12.14252019      28.08600001      -1.67316295       1.03616649       0.23283656      164        1       2.40000000       2.40000000
Si       2.40892414      16.30186557      14.49595774      28.08600001      -1.03076184      -0.31718654      -0.60667427      165        1       2.40000000       2.40000000
Si      20.57082852      13.20076568      14.49657371      28.08600001       1.66437724       1.58526211       2.41337696      166        1       2.40000000       2.40000000
Si      10.64926340      21.27830659      11.44610281      28.08600001      -0.18146407       0.05899153      -0.42424233      167        1       2.40000000       2.40000000
Si      15.25122466      -0.16881069       7.93684347      28.08600001      -0.19752654       0.06828899      -0.49579086      168        1       2.40000000       2.40000000
Si       5.12756343      20.43349875      13.21240938      28.08600001      -0.61209876       0.68147860      -1.41450598      169        1       2.40000000       2.40000000
Si      21.73837167       4.45686555      18.98577136      28.08600001       0.35537980      -0.11267371       0.50179825      170        1       2.40000000       2.40000000
Si      17.27975172       8.69093877       6.50595244      28.08600001       1.44983782       1.56104466      -0.76130714      171        1       2.40000000       2.40000000
Si      18.53253629       9.19673674      10.17088676      28.08600001       0.14467142       0.75530421       1.73541635      172        1       2.40000000       2.40000000
Si       5.81610303       8.66908930      17.52951437      28.08600001      -0.37572223       0.06233969       0.07098174      173        1       2.40000000       2.40000000
Si       1.96701094      21.98205382       4.19812093      28.08600001       0.21651684       2.25590779      -0.68749224      174        1       2.40000000       2.40000000
Si      10.64276657       7.72342107      10.05737327      28.08600001      -0.05008264       0.00219903      -1.51305842      175        1       2.40000000       2.40000000
Si       7.03904981      17.93153162      13.04097585      28.08600001      -0.54203628       0.73663871      -0.24129366      176        1       2.40000000       2.40000000
Si      10.11077082       6.35951883      19.99032886      28.08600001       0.07357356       0.49800860       1.18438570      177        1       2.40000000       2.40000000
Si      13.98749293      19.75823084       3.24265098      28.08600001      -1.66143804      -1.16631089      -0.00708754      178        1       2.40000000       2.40000000
Si      16.29030196      15.58870810       3.35497258      28.08600001       0.31369886       0.76250889      -0.76443662      179        1       2.40000000       2.40000000
Si      18.30743122      15.20374578       0.95053696      28.08600001      -1.50007275      -1.50222737      -1.18749741      180        1       2.40000000       2.40000000
Si       5.39191986      19.17873605       0.82669018      28.08600001       0.43645262       0.35385104       0.02380232      181        1       2.40000000       2.40000000
Si      15.48940992       7.73302263      17.58545249      28.08600001       0.53919597      -1.03388892      -0.55860469      182        1       2.40000000       2.40000000
Si       7.97234396      17.35864007      10.09885859      28.08600001       0.66029376      -0.56148510      -1.14691575      183        1       2.40000000       2.40000000
Si      -0.50364421      19.62579348      13.32778539      28.08600001       1.33077788      -0.12803035      -0.61503125      184        1       2.40000000       2.40000000
Si       1.75493790      21.70854754      19.83244698      28.08600001       0.90048512      -0.15595315      -0.17702109      185        1       2.40000000       2.40000000
Si       6.68764531      22.15516780       8.30733646      28.08600001      -0.05415703       0.51282376      -1.71453293      186        1       2.40000000       2.40000000
Si       3.22021732      21.00135895       1.56923742      28.08600001      -0.03466460       0.55980874      -0.40038267      187        1       2.40000000       2.40000000
Si      18.01372634      17.87043678      15.30464393      28.08600001       0.56336143      -0.51368999       0.29112607      188        1       2.40000000       2.40000000
Si       2.88034198      12.67414834      21.00078096      28.08600001       0.18978108       0.16330611      -0.67226397      189        1       2.40000000       2.40000000
Si      18.05954799      14.75190806      15.53501086      28.08600001       0.36155815       1.31589901      -0.57330438      190        1       2.40000000       2.40000000
Si       1.23339368      17.78900142       8.25320124      28.08600001      -0.46902483      -0.57863191      -1.40603812      191        1       2.40000000       2.40000000
Si       1.02887235      15.37019148       6.16576786      28.08600001      -0.28822705       0.14501472      -0.22723288      192        1       2.40000000       2.40000000
Si       8.51934015       0.65435004       4.28392153      28.08600001      -1.03863453      -1.05025304       1.26843184      193        1       2.40000000       2.40000000
Si      11.78970818       4.27904284      21.63711793      28.08600001       0.99106251       2.14098323      -0.49306220      194        1       2.40000000       2.40000000
Si      16.58425784      11.04003432       8.64332722      28.08600001       0.13939501      -0.54624080      -2.40206986      195        1       2.40000000       2.40000000
Si       1.28080100      20.39680449       6.75450113      28.08600001      -0.29946624       0.89653852       0.74552502      196        1       2.40000000       2.40000000
Si       5.46542787       9.79639706       9.23601617      28.08600001       0.43029000       1.60512983       1.58481024      197        1       2.40000000       2.40000000
Si      16.57457133      18.85047528       7.58043465      28.08600001       1.05528923       0.72890593       1.34056359      198        1       2.40000000       2.40000000
Si      11.93921951      16.43127440       0.12634996      28.08600001      -0.02366298      -0.79317916       0.46507813      199        1       2.40000000       2.40000000
Si      16.03124333      17.77910841      22.12242202      28.08600001      -0.15128906       0.40665201       1.96076375      200        1       2.40000000       2.40000000
Si       1.96281771      14.86705400      17.27830812      28.08600001      -0.27611831       2.13579401      -2.03466016      201        1       2.40000000       2.40000000
Si      19.27971851      20.22352683       8.48861624      28.08600001       0.23777850       0.93091924       0.99545419      202        1       2.40000000       2.40000000
Si      20.10010723      14.79463415       9.02598427      28.08600001      -0.40205570       1.94510608       0.45514672      203        1       2.40000000       2.40000000
Si      -0.09127466       7.10739982       7.01036635      28.08600001      -2.02475584      -0.04778377       1.56275904      204        1       2.40000000       2.40000000
Si       1.71043489       5.62640751      15.39235148      28.08600001       0.44566806      -1.02665767      -0.89252212      205        1       2.40000000       2.40000000
Si      10.86938297       2.59383122       0.66125213      28.08600001      -0.63804219      -0.29759145      -1.32513631      206        1       2.40000000       2.40000000
Si      10.91237834       4.18462252       3.31173508      28.08600001       0.01007078      -0.05435823      -0.86779562      207        1       2.40000000       2.40000000
Si      13.22185419      19.12478849      18.44936392      28.08600001      -1.36528368      -1.17253858      -1.85549399      208        1       2.40000000       2.40000000
Si      14.55365744      17.35398183       1.50159898      28.08600001       1.01185748       0.81748038       1.36447247      209        1       2.40000000       2.40000000
Si       6.32188539       4.33802202      16.58548407      28.08600001      -1.21915088      -0.23663466      -1.04868927      210        1       2.40000000       2.40000000
Si      14.92443896       2.36640916       9.79030109      28.08600001      -0.11264726      -0.47125214       1.93086855      211        1       2.40000000       2.40000000
Si      18.63086672       3.54810552      18.78275698      28.08600001       1.73687458      -1.83860073       0.41486134      212        1       2.40000000       2.40000000
Si      15.56140037       3.50502969       1.38449907      28.08600001      -0.70920896       0.62009476      -0.22227021      213        1       2.40000000       2.40000000
Si       2.75060157      -0.17182905      22.68463493      28.08600001      -0.71163974       0.16239759      -0.55895285      214        1       2.40000000       2.40000000
Si       2.28525216      12.83976789       3.31709514      28.08600001       0.34354237      -0.87176841      -0.10231457      215        1       2.40000000       2.40000000
Si      20.55215402      13.13656083      19.07208684      28.08600001      -0.25052787       0.52489421       0.35596342      216        1       2.40000000       2.40000000
Si      12.01026940       3.05023503       8.76563031      28.08600001       0.40275088      -0.74336868       0.47734995      217        1       2.40000000       2.40000000
Si       5.06597869       1.79612694      15.29976771      28.08600001       1.56394393       0.17484701       1.63600308      218        1       2.40000000       2.40000000
Si      20.45954407       4.75956388       0.16350224      28.08600001       1.14764357       0.08541968      -0.25570910      219        1       2.40000000       2.40000000
Si       8.04791825       9.13555756      10.91507683      28.08600001      -1.67142867       0.56972778       1.02481729      220        1       2.40000000       2.40000000
Si      21.09148975      18.06909923      15.66361209      28.08600001      -0.55360791       0.93165611       1.65059292      221        1       2.40000000       2.40000000
Si      14.50846341       1.47397321      19.65807188      28.08600001       0.32189431      -0.49563644      -0.03219706      222        1       2.40000000       2.40000000
Si       4.36039536      13.48336889      18.44136354      28.08600001      -1.57904689      -0.25784186      -0.96605247      223        1       2.40000000       2.40000000
Si      18.18500062      13.24204788       7.17891210      28.08600001      -0.47540593       0.30231139      -0.15372716      224        1       2.40000000       2.40000000
Si       4.34412014       8.86859461       1.11794757      28.08600001      -0.33485014      -0.10221547       0.97343845      225        1       2.40000000       2.40000000
Si       0.63286690       0.68690645       4.97262096      28.08600001       0.07104582       1.15786703       0.05763016      226        1       2.40000000       2.40000000
Si      22.02649571       6.76760627      16.87748536      28.08600001       0.19038502      -0.58228326      -1.70870045      227        1       2.40000000       2.40000000
Si      20.20566462       8.77496111       7.65746545      28.08600001       0.75167673      -0.33647041       0.75181984      228        1       2.40000000       2.40000000
Si       0.27499838       1.32852254       0.66906424      28.08600001      -0.37284928       0.08716853       0.61370463      229        1       2.40000000       2.40000000
Si       1.08559311      10.04709508       3.67299298      28.08600001       0.51198155       1.31542393      -1.00367521      230        1       2.40000000       2.40000000
Si      21.32546061       6.00302572       4.30011467      28.08600001       0.01000088       0.31916459       0.87532594      231        1       2.40000000       2.40000000
Si       4.47638200      20.06382239      19.80614646      28.08600001      -0.45765836       0.03518207      -0.75184798      232        1       2.40000000       2.40000000
Si       8.10028348       0.35253888      22.06214528      28.08600001      -0.89714237      -0.33267251      -0.53041675      233        1       2.40000000       2.40000000
Si       3.92660254      11.06315438      11.55439617      28.08600001       0.12693099       0.49496844       1.00875525      234        1       2.40000000       2.40000000
Si      10.98437719      12.79943882      21.92054276      28.08600001      -0.57493639      -0.58195396      -0.47407772      235        1       2.40000000       2.40000000
Si      19.90815133       6.37362463      14.53894573      28.08600001      -0.32339859       0.71470818      -0.35007001      236        1       2.40000000       2.40000000
Si       7.15595028      18.59888710       3.14837494      28.08600001       1.12644988      -0.26271549       0.58566316      237        1       2.40000000       2.40000000
Si       7.28534861      -0.20614007      14.86685233      28.08600001      -0.98330755      -0.56493915       0.77013442      238        1       2.40000000       2.40000000
Si       8.28152054       3.79196838       4.65162463      28.08600001       0.83097404       0.11942225       0.21591854      239        1       2.40000000       2.40000000
Si       5.77720994       2.98360866      10.36319717      28.08600001      -2.48692747      -0.39794490      -0.61459444      240        1       2.40000000       2.40000000
Si      20.74283218      13.37413523       1.58572416      28.08600001       1.11830276      -0.30497963       0.33582702      241        1       2.40000000       2.40000000
Si       7.52447064      18.26329544      17.45015740      28.08600001       0.16975940       0.74800920      -0.34788845      242        1       2.40000000       2.40000000
Si      11.19966243      20.28647635       2.19985089      28.08600001       0.96033131       0.50263111      -0.12669025      243        1       2.40000000       2.40000000
Si       0.61135806       4.44376003       1.06116773      28.08600001       0.78630364      -0.71045537      -0.25472522      244        1       2.40000000       2.40000000
Si      18.68084452      10.78617876      14.87584810      28.08600001       0.31611701       0.01543442      -0.01289669      245        1       2.40000000       2.40000000
Si      17.63246115      17.93397123      19.67754724      28.08600001      -0.82971107       0.08890318       0.04950951      246        1       2.40000000       2.40000000
Si       1.68020131       7.66606822      21.69645296      28.08600001       0.83825774      -1.10601539       0.38176832      247        1       2.40000000       2.40000000
Si       9.29321491       8.88597423      21.49716047      28.08600001       1.20545792       0.27820441       0.68600111      248        1       2.40000000       2.40000000
Si       0.95339520      18.12781942       3.06826928      28.08600001      -0.36424563      -0.59034530       1.06241071      249        1       2.40000000       2.40000000
Si       3.58582674      10.68004714      17.04281104      28.08600001       0.39394231      -0.63571579       0.13245848      250        1       2.40000000       2.40000000
Si       1.09249466      12.28891285      10.76766517      28.08600001      -1.53654406       0.54345993       0.80048026      251        1       2.40000000       2.40000000
Si      11.48169484      14.90558518      17.97858903      28.08600001       0.83594243       0.26776215      -0.12694978      252        1       2.40000000       2.40000000
Si      -0.06461277      15.18266280       3.38038171      28.08600001      -1.21004199      -0.73210695       0.55091557      253        1       2.40000000       2.40000000
Si      15.12655249       8.65466728      12.90588379      28.08600001       0.76905141      -0.83102885       0.86955696      254        1       2.40000000       2.40000000
Si       8.32277323      12.72902569      20.10540072      28.08600001      -0.56393148      -0.16509740      -0.06185324      255        1       2.40000000       2.40000000
Si       6.85054418      20.33075960      22.05593541      28.08600001      -0.11184640       1.45706553       0.03236895      256        1       2.40000000       2.40000000
Si      16.98256053      12.94819520      13.32246298      28.08600001      -0.37578906       1.71704722       0.06676051      257        1       2.40000000       2.40000000
Si       3.36262388      18.05009377      10.65385743      28.08600001      -1.06813613       0.88152637      -0.21086724      258        1       2.40000000       2.40000000
Si       1.85449980       7.53219225      12.95578673      28.08600001       0.92816984       1.50603505       0.10187071      259        1       2.40000000       2.40000000
Si       8.67393479      12.18266230      11.07887945      28.08600001      -1.70927224       1.25095071       0.13175564      260        1       2.40000000       2.40000000
Si       3.92502475       5.98650357      17.46165420      28.08600001      -0.66733089       0.26455403      -1.70009020      261        1       2.40000000       2.40000000
Si      19.05551757       1.67339869      21.06157826      28.08600001       1.49751245       1.64858099       0.27015461      262        1       2.40000000       2.40000000
Si      11.23729505       8.46286013      17.80417211      28.08600001       1.00803887      -0.09536438      -0.30901521      263        1       2.40000000       2.40000000
Si       4.75291039       3.86803661       6.46469164      28.08600001      -0.83630764      -0.26661936      -0.00203411      264        1       2.40000000       2.40000000
Si      10.62033362       8.00979686      14.93691609      28.08600001      -0.16233610      -0.10956873      -0.19811149      265        1       2.40000000       2.40000000
Si      16.73393047      15.91840439       6.41015694      28.08600001      -1.20050414      -0.30418319       0.63969128      266        1       2.40000000       2.40000000
Si      12.44987357       1.89016883      14.13257485      28.08600001      -1.59959985      -0.40258907       0.10039684      267        1       2.40000000       2.40000000
O       18.28237479       6.45342489      14.65556105      15.99940000       0.86392969      -0.90294204      -0.54979869      268        2      -1.20000000      -1.20000000
O        9.35597828       7.06182483      15.35173488      15.99940000       0.26047521       0.20378638       0.80602909      269        2      -1.20000000      -1.20000000
O       17.91446065       7.61405038      22.61048894      15.99940000       0.66079352      -0.01426809       0.47679319      270        2      -1.20000000      -1.20000000
O        4.75992923      21.15432700      11.81349400      15.99940000       0.60591223      -1.47022318      -0.43403311      271        2      -1.20000000      -1.20000000
O        2.84905030       7.28801177      11.66458233      15.99940000      -0.23850948       1.24777525      -0.59343450      272        2      -1.20000000      -1.20000000
O        8.57396303       5.74472365      19.63087398      15.99940000       0.12868637       0.51328247       0.65445235      273        2      -1.20000000      -1.20000000
O       15.26258050      15.25515331       6.75043561      15.99940000      -0.18059538      -0.72808941      -0.13618756      274        2      -1.20000000      -1.20000000
O        0.55467449       8.36668261      12.40232544      15.99940000       0.23001311       0.75784512      -0.69292782      275        2      -1.20000000      -1.20000000
O        6.75934543       9.27941733       5.84120234      15.99940000       0.04934774       1.05908264      -0.11151422      276        2      -1.20000000      -1.20000000
O       -1.22176928      19.29053232      14.76153109      15.99940000      -0.24440066       0.07053867      -0.18831729      277        2      -1.20000000      -1.20000000
O        4.31157409       0.54111370       7.71920582      15.99940000       0.33053244       0.09897457      -0.93776979      278        2      -1.20000000      -1.20000000
O       21.26654830       8.46697871       0.85680555      15.99940000       1.54433896      -0.59616845      -1.84343014      279        2      -1.20000000      -1.20000000
O       17.38100112       4.68079437      18.59055443      15.99940000       0.22266410       0.93125573       1.78745130      280        2      -1.20000000      -1.20000000
O       -0.16895433      18.90925760      21.62077251      15.99940000      -0.07059415       0.86499725      -0.12524829      281        2      -1.20000000      -1.20000000
O        1.15672726      12.93223219       9.30632883      15.99940000       0.06292738      -0.91565999      -0.40889859      282        2      -1.20000000      -1.20000000
O        1.02930355      20.08828719      13.38075236      15.99940000       0.46108130       1.58266258      -0.10109475      283        2      -1.20000000      -1.20000000
O        6.14368395       1.79311152       9.24186780      15.99940000       0.05846743      -0.47392426       0.62643177      284        2      -1.20000000      -1.20000000
O       19.99334940      11.74407195      14.82633597      15.99940000       0.83662838      -0.16584056      -0.37341271      285        2      -1.20000000      -1.20000000
O       16.49711723       2.16763018       1.41386572      15.99940000      -0.29662202       0.65502842       0.06298784      286        2      -1.20000000      -1.20000000
O       10.25432074       6.97987598       1.32373409      15.99940000      -1.26072216      -0.49751745      -0.84088609      287        2      -1.20000000      -1.20000000
O        8.97146134       0.20177033       8.93729801      15.99940000       0.09412397      -0.38392297      -0.05272211      288        2      -1.20000000      -1.20000000
O       16.52366870      18.22214103      18.59684705      15.99940000       0.30239993      -0.28904029       0.90300809      289        2      -1.20000000      -1.20000000
O        9.38935217      11.77571745       2.69039775      15.99940000      -0.76535131       0.93393615       0.82437979      290        2      -1.20000000      -1.20000000
O       11.20698501      21.16983204      20.65254586      15.99940000      -0.06242710      -0.64807797       0.15920246      291        2      -1.20000000      -1.20000000
O       11.59272456      21.37818899      15.49705038      15.99940000      -0.45346875      -0.51263067      -0.63690360      292        2      -1.20000000      -1.20000000
O       10.63152956      14.65625897       5.48167246      15.99940000      -0.14083405      -0.10420833      -0.53053237      293        2      -1.20000000      -1.20000000
O        5.32997603       6.98227443      12.26514860      15.99940000      -0.12598357       0.50520763       0.69538950      294        2      -1.20000000      -1.20000000
O        6.49646072      18.30056940       7.10376619      15.99940000       1.43520566       1.37394190      -0.95509567      295        2      -1.20000000      -1.20000000
O        1.48286783       1.56942156      14.46664195      15.99940000       0.17889412       0.24823021      -0.01252222      296        2      -1.20000000      -1.20000000
O       -0.73645843      17.77937302      16.83969859      15.99940000      -0.41299462       0.41321943      -0.18474400      297        2      -1.20000000      -1.20000000
O       18.34132866      12.03348395       6.08784032      15.99940000       0.20510716       0.03572771       0.10928792      298        2      -1.20000000      -1.20000000
O       19.14268503      18.55840760      22.49305030      15.99940000       0.51445802      -0.42794746      -0.28317561      299        2      -1.20000000      -1.20000000
O        2.97399287       6.72430195       3.48251726      15.99940000      -0.42831468       0.56985077      -0.60428464      300        2      -1.20000000      -1.20000000
O       18.21570244      10.67498670      16.45354576      15.99940000       0.11189214       0.05291634      -0.53580027      301        2      -1.20000000      -1.20000000
O       14.21319310       6.91320844      16.75916445      15.99940000      -0.39489534      -0.14033705      -1.35217013      302        2      -1.20000000      -1.20000000
O       15.84948766       0.19793307       6.42206346      15.99940000       0.24279539      -0.14633353      -0.38021011      303        2      -1.20000000      -1.20000000
O        1.03918299      10.52166538      13.54100203      15.99940000      -0.70969459       0.56275813       0.34615648      304        2      -1.20000000      -1.20000000
O       16.97238601      14.44226029      22.31679844      15.99940000       0.13426261       0.50069161      -0.08359083      305        2      -1.20000000      -1.20000000
O       16.39560354      21.95842731      18.07188102      15.99940000      -0.47282364      -0.54727999       0.23904310      306        2      -1.20000000      -1.20000000
O        5.49659434      10.15834538      21.30850320      15.99940000      -0.13015695       0.34942326      -0.72618852      307        2      -1.20000000      -1.20000000
O       11.52333580      12.34895100       5.98744876      15.99940000       0.54783509       0.28420765      -0.03732713      308        2      -1.20000000      -1.20000000
O        0.47771859      11.26970064       7.47307540      15.99940000      -0.02339295       0.14885198      -0.62089923      309        2      -1.20000000      -1.20000000
O        4.89504765      13.47960347       6.11315299      15.99940000       0.47289862      -0.32782619      -0.61257119      310        2      -1.20000000      -1.20000000
O        9.62929462      21.98947491      10.46761402      15.99940000      -0.22176954       1.32725646      -0.97259607      311        2      -1.20000000      -1.20000000
O       14.39433580      18.94533782       1.90877908      15.99940000      -0.02892164      -0.69997561       0.26878005      312        2      -1.20000000      -1.20000000
O        8.35376928      12.40675764      18.48174377      15.99940000      -0.15652641       0.77920187       0.08451958      313        2      -1.20000000      -1.20000000
O       19.28469415       0.28893419       9.48351637      15.99940000       0.80254183       0.15549811       0.92813785      314        2      -1.20000000      -1.20000000
O       15.04886739       6.88911649       2.81792467      15.99940000       0.06219192      -0.39384703      -0.29421972      315        2      -1.20000000      -1.20000000
O       14.10565717       2.04237897      18.17395253      15.99940000       0.03307942       0.53555038      -0.66620261      316        2      -1.20000000      -1.20000000
O        4.19076050      13.00461619      20.01086086      15.99940000       1.17237359      -0.22764605      -0.82440843      317        2      -1.20000000      -1.20000000
O       22.26695675       6.39006267       5.59734273      15.99940000      -0.46370262      -0.23527682       0.19149321      318        2      -1.20000000      -1.20000000
O        4.69070534       4.92026962       7.70174341      15.99940000      -0.15637953      -1.06186151      -0.01428951      319        2      -1.20000000      -1.20000000
O       17.03478455      10.03279084      21.69904951      15.99940000       0.23441428       0.23601149       0.93993162      320        2      -1.20000000      -1.20000000
O       10.79788866      14.12225670       2.93900676      15.99940000       1.34698659       0.60349744      -0.04416776      321        2      -1.20000000      -1.20000000
O       19.31176989      11.07158834      21.48136372      15.99940000      -0.31905385      -0.64915244      -0.97018514      322        2      -1.20000000      -1.20000000
O       21.19986850      12.32164173      20.33185684      15.99940000      -0.29128921       0.75076638       0.25504849      323        2      -1.20000000      -1.20000000
O       10.97737060      15.89324243      19.06414296      15.99940000       0.60907806      -0.33694644      -0.95268398      324        2      -1.20000000      -1.20000000
O        7.75890170       7.77971173       1.68819640      15.99940000      -0.27386323      -0.18155219       0.96062135      325        2      -1.20000000      -1.20000000
O       10.00729797       6.25276720      10.47850602      15.99940000      -0.42061342       0.64146085      -0.58810836      326        2      -1.20000000      -1.20000000
O       19.33348145      16.52131917       0.59809923      15.99940000      -0.39038602       0.45865412      -0.60871898      327        2      -1.20000000      -1.20000000
O        1.21132933       4.86758975       2.44292342      15.99940000       0.12524126      -2.09615096       0.93556251      328        2      -1.20000000      -1.20000000
O       22.23776419       0.03193181      13.94509367      15.99940000      -0.31040708      -0.33795185       0.57605708      329        2      -1.20000000      -1.20000000
O       12.81212428       5.74271650      12.13929181      15.99940000       0.13664573       0.24399026       0.28524323      330        2      -1.20000000      -1.20000000
O       16.87369179      17.30369367       7.29448489      15.99940000       0.49762136       0.68927199      -0.16359456      331        2      -1.20000000      -1.20000000
O        4.15963392       2.79325824      10.54444940      15.99940000      -0.22459149      -0.21246404       0.77128858      332        2      -1.20000000      -1.20000000
O        1.88503788      11.60326893      20.20945962      15.99940000      -0.29276702       0.44558717      -0.15816404      333        2      -1.20000000      -1.20000000
O        3.21329003      21.90459064       9.83294160      15.99940000      -0.47401607      -0.15929434      -0.52825541      334        2      -1.20000000      -1.20000000
O       18.89672527       9.08652818      11.72618230      15.99940000      -0.91007752       0.38961140      -0.06017449      335        2      -1.20000000      -1.20000000
O       21.05874274      18.13749573       6.24532353      15.99940000      -1.94929439      -0.23377264      -0.31359579      336        2      -1.20000000      -1.20000000
O       14.15686679      10.58206375      20.22490294      15.99940000      -0.00777092      -0.53001113      -0.51700534      337        2      -1.20000000      -1.20000000
O        2.24684766       9.14208417       4.26259721      15.99940000       0.22183992      -0.37184485      -0.68290363      338        2      -1.20000000      -1.20000000
O       20.07992651      21.55058552      20.40818440      15.99940000       0.74258382      -0.12978020       0.26394570      339        2      -1.20000000      -1.20000000
O        8.42722308       0.85935366      14.54706713      15.99940000      -0.13098053      -1.27034498      -0.37543885      340        2      -1.20000000      -1.20000000
O        0.46744300      22.52985789       4.25021606      15.99940000      -0.10782100       0.15719072      -0.37114933      341        2      -1.20000000      -1.20000000
O        5.82483262      21.32128148       9.47937324      15.99940000       0.31925300       0.04684939      -0.02423666      342        2      -1.20000000      -1.20000000
O        1.26689943      13.35236940      16.99432695      15.99940000      -0.67778965       0.14350554       0.22262486      343        2      -1.20000000      -1.20000000
O       12.69224625       7.78497832       1.98364300      15.99940000      -0.06546939      -0.14591675      -0.53402205      344        2      -1.20000000      -1.20000000
O        9.50783027       1.97145740       0.05290313      15.99940000       0.92634384       1.07801820      -0.18861802      345        2      -1.20000000      -1.20000000
O        6.18064879       2.90523588      15.79379689      15.99940000       0.94246032       0.73286761       0.26952930      346        2      -1.20000000      -1.20000000
O       10.01180375       7.46660154      21.07845313      15.99940000       1.00905844      -1.34169222       1.23342086      347        2      -1.20000000      -1.20000000
O       11.09975878      19.72806980       7.94040759      15.99940000      -1.84317807       0.19492994       0.11071410      348        2      -1.20000000      -1.20000000
O        3.99178696      19.40162740       9.99330321      15.99940000      -0.57265076       0.46404528      -0.03578720      349        2      -1.20000000      -1.20000000
O       16.87695452      10.00740751       7.46023085      15.99940000       0.77423862       0.57045486       0.30271927      350        2      -1.20000000      -1.20000000
O       -0.24731137       4.64629708      20.45210828      15.99940000      -0.25958528      -0.88385317      -0.22377424      351        2      -1.20000000      -1.20000000
O       13.76919402       3.02398955       5.86810971      15.99940000      -0.74175143      -0.03499285       0.54819335      352        2      -1.20000000      -1.20000000
O        7.42229331      20.91987727       7.52443205      15.99940000       0.39506907       0.27040177      -0.37608618      353        2      -1.20000000      -1.20000000
O       17.49429307      15.42402610       2.31665258      15.99940000      -0.13628298      -0.60768820       0.74584827      354        2      -1.20000000      -1.20000000
O        3.52648904       4.99487751      18.62580630      15.99940000      -0.32417274      -0.13940432      -0.12191607      355        2      -1.20000000      -1.20000000
O        2.95163805       8.60188207       0.32716309      15.99940000       0.91676520      -0.57710870      -0.69086257      356        2      -1.20000000      -1.20000000
O       16.74485246      21.97441041       5.50031523      15.99940000      -0.65962330       0.86211767       0.53528372      357        2      -1.20000000      -1.20000000
O       20.07009010       4.32459882      19.19187273      15.99940000       0.25994256      -0.39893495       0.92746239      358        2      -1.20000000      -1.20000000
O       12.27581189      12.06612521      21.25665375      15.99940000       0.09553451       0.35774961      -0.04425340      359        2      -1.20000000      -1.20000000
O        2.02930321      14.09059444      21.51811591      15.99940000       0.44038446      -0.13398465       0.12802745      360        2      -1.20000000      -1.20000000
O       16.26103352       7.47847716       6.84600380      15.99940000       0.22477360       0.67260678       0.16720447      361        2      -1.20000000      -1.20000000
O       20.02842122      18.73786859       8.64561369      15.99940000       0.51153153       0.22781752       0.92229912      362        2      -1.20000000      -1.20000000
O       11.56667607      16.89234974      11.87674218      15.99940000       0.32020422       0.68202175      -0.63236539      363        2      -1.20000000      -1.20000000
O        5.14135136      17.65425721      22.26492121      15.99940000       0.23174672       0.34257026      -0.32099459      364        2      -1.20000000      -1.20000000
O       14.98812537      11.28465836       8.89461218      15.99940000       0.79111961       0.76721198      -0.64768889      365        2      -1.20000000      -1.20000000
O        2.48170615      15.78999039       5.45948296      15.99940000       0.56728124      -0.04774059      -0.22290906      366        2      -1.20000000      -1.20000000
O        3.47733984      13.65684788       2.47305542      15.99940000      -0.02503990       0.25773304      -1.04455084      367        2      -1.20000000      -1.20000000
O        2.73623464      12.62625266       4.85081846      15.99940000       0.54141608      -0.49308246       0.65805274      368        2      -1.20000000      -1.20000000
O       10.18492433      12.71599495      10.84098643      15.99940000      -0.10896683       0.66054882       0.20525842      369        2      -1.20000000      -1.20000000
O       -0.31889413      18.60768954       3.96683283      15.99940000       0.98236346       0.86084855      -0.94609168      370        2      -1.20000000      -1.20000000
O       13.20063345      10.31593921       5.72179923      15.99940000      -0.27100111       0.74002865       0.26444731      371        2      -1.20000000      -1.20000000
O        6.79375908       4.15307665      18.19145501      15.99940000      -0.86896445       0.62175755      -0.76182984      372        2      -1.20000000      -1.20000000
O        8.98638005      19.19778286       6.55763838      15.99940000       0.06319116      -0.78569220       0.19036918      373        2      -1.20000000      -1.20000000
O        7.02573402       3.75214726       3.59041874      15.99940000       1.48913048      -0.78206993       0.58004599      374        2      -1.20000000      -1.20000000
O       20.44948651      20.28266420       4.58826336      15.99940000       0.31882126       0.39468760      -0.22755392      375        2      -1.20000000      -1.20000000
O        0.18125538      13.24253183      11.72613771      15.99940000      -0.57105772      -0.09005206      -0.72459100      376        2      -1.20000000      -1.20000000
O        8.90130251      -0.03898737       2.69607915      15.99940000       1.43619299       0.17246966      -0.29108834      377        2      -1.20000000      -1.20000000
O        7.01357048      17.81330358       4.56204228      15.99940000      -0.38931566      -0.63150962       0.32721210      378        2      -1.20000000      -1.20000000
O       10.01309293      22.50721086       7.89415215      15.99940000       0.71088464      -0.47723325       1.02923328      379        2      -1.20000000      -1.20000000
O        4.18756899       1.36770327      16.58532105      15.99940000      -0.42145957       0.70525394      -0.14250327      380        2      -1.20000000      -1.20000000
O        5.58377636      20.45898486      20.92484888      15.99940000      -0.09712985      -0.29715553      -0.64517178      381        2      -1.20000000      -1.20000000
O        4.96974199       5.10820159      16.53631806      15.99940000       0.14513422      -0.30829731       0.71341275      382        2      -1.20000000      -1.20000000
O       20.61884177       6.86836391      16.01525184      15.99940000       0.11879843       0.49898955      -0.38761897      383        2      -1.20000000      -1.20000000
O        0.39418918      10.78994740      11.06063109      15.99940000       1.57146651       2.10855961      -0.46887798      384        2      -1.20000000      -1.20000000
O       11.65906853       2.79008301      17.83384506      15.99940000       0.05134553      -0.17938743      -0.39685927      385        2      -1.20000000      -1.20000000
O       20.29469676       9.43123996       3.10191910      15.99940000       0.25520006       0.31308569       1.03295862      386        2      -1.20000000      -1.20000000
O       21.21391843       9.88400738      12.70480591      15.99940000       1.50611270       0.98942103       0.17508686      387        2      -1.20000000      -1.20000000
O       12.62567105       3.27727987      13.30554753      15.99940000       0.45893845      -0.12290404      -0.91968730      388        2      -1.20000000      -1.20000000
O       22.17246405       0.42679207       1.67326624      15.99940000      -0.48083172      -0.33405262      -0.36322130      389        2      -1.20000000      -1.20000000
O       14.90230869      18.67690866      21.27270528      15.99940000      -0.33571272       0.14929764      -0.45155215      390        2      -1.20000000      -1.20000000
O       13.36168795       4.11961101      21.07746896      15.99940000      -0.59739351      -0.03929495       0.11424826      391        2      -1.20000000      -1.20000000
O       14.94939918      10.16346629      13.31733304      15.99940000      -0.21286594      -1.69979626       1.12790258      392        2      -1.20000000      -1.20000000
O        4.77334585      15.33869696       8.22622147      15.99940000       0.14627370       0.56823858       1.01816960      393        2      -1.20000000      -1.20000000
O        9.79667398      16.35236506       3.46858608      15.99940000       0.83060843       0.28888900       0.02706493      394        2      -1.20000000      -1.20000000
O        9.96645475      21.19180028       2.87591406      15.99940000      -0.95908187      -0.97147198       0.04222631      395        2      -1.20000000      -1.20000000
O       17.50660553      14.81026213      17.11286733      15.99940000      -0.22152510       1.11666558      -0.15790878      396        2      -1.20000000      -1.20000000
O       13.67935072       7.90750185      13.07997625      15.99940000       1.93170576       0.61034199       0.32541538      397        2      -1.20000000      -1.20000000
O        3.85192346      15.99041426      13.71280232      15.99940000       0.96367882       0.27604017       0.13466329      398        2      -1.20000000      -1.20000000
O       20.11880762      21.48007690       7.54138722      15.99940000       0.49762919       0.84080162      -0.07460780      399        2      -1.20000000      -1.20000000
O       14.70008051      20.16768585      11.31090081      15.99940000      -1.47113471       1.50691235      -0.05402621      400        2      -1.20000000      -1.20000000
O       19.46548760      12.13400298      18.20783920      15.99940000       0.20953210       0.79696613       0.00812368      401        2      -1.20000000      -1.20000000
O       12.58594370      20.19629909      13.20134958      15.99940000       0.51116952      -1.30365270      -0.66034142      402        2      -1.20000000      -1.20000000
O        0.07427168       9.96654279      19.11009479      15.99940000      -0.58417566      -1.19175410      -0.03399834      403        2      -1.20000000      -1.20000000
O       15.23198161      16.54030715       2.74239791      15.99940000      -0.53431609       0.13311049       0.58800310      404        2      -1.20000000      -1.20000000
O       12.47688924       9.04238932      18.64197093      15.99940000      -0.89347830       0.55024906       0.20419718      405        2      -1.20000000      -1.20000000
O       -0.16212604       0.59063969      19.17728918      15.99940000       1.02405391      -1.12445655      -0.51895398      406        2      -1.20000000      -1.20000000
O        3.04001507      16.52849913      21.20367387      15.99940000      -0.76852618       0.60825043       1.08920840      407        2      -1.20000000      -1.20000000
O       17.06041153      20.58035591      16.01704481      15.99940000      -1.34287352       0.22353671      -0.28289721      408        2      -1.20000000      -1.20000000
O       15.58382357       1.18628558       8.89270262      15.99940000      -0.39693626       0.04749203      -0.01040756      409        2      -1.20000000      -1.20000000
O       19.21700162      13.89370195       1.13793261      15.99940000      -0.37908235      -0.86720855      -0.03233289      410        2      -1.20000000      -1.20000000
O       17.53099727      10.53640881       9.85112296      15.99940000       0.94159277      -0.59953242       0.49983401      411        2      -1.20000000      -1.20000000
O       19.79068228       2.52642400      13.17060958      15.99940000      -0.67945841      -0.51895439       0.26340265      412        2      -1.20000000      -1.20000000
O       13.18053770       0.78444589      20.26409848      15.99940000      -0.87094990       0.61863615       0.41768214      413        2      -1.20000000      -1.20000000
O       14.91213368       4.34516779      12.69084595      15.99940000      -0.32188278       0.07931906      -0.37108276      414        2      -1.20000000      -1.20000000
O       18.07167906      16.28358259      14.95949839      15.99940000      -1.48144445       0.33699792       0.95764882      415        2      -1.20000000      -1.20000000
O        8.94688613      18.18312352      16.63439791      15.99940000       0.02697590      -0.13501691      -0.77465629      416        2      -1.20000000      -1.20000000
O       13.50275153      11.43978042      17.81977127      15.99940000      -0.41664178      -1.20922576       0.45989763      417        2      -1.20000000      -1.20000000
O        5.74805577      18.94272727      13.16127377      15.99940000      -0.21761645      -0.58122163      -0.63912414      418        2      -1.20000000      -1.20000000
O       18.86118724       2.68973994      17.38640962      15.99940000       0.55235114      -0.60048626       0.44172036      419        2      -1.20000000      -1.20000000
O       21.69176268      17.92295998       0.60019892      15.99940000      -0.35361805       0.19512577       0.47478989      420        2      -1.20000000      -1.20000000
O        4.52830992      17.58645021       5.39596913      15.99940000       0.00680709       0.53592955       1.20746733      421        2      -1.20000000      -1.20000000
O       15.30580782      13.39957444      17.65544488      15.99940000       0.28142539      -1.19798924       0.71749246      422        2      -1.20000000      -1.20000000
O        4.97823897       9.09528311       7.78166872      15.99940000      -0.43067588       0.60251317      -0.03318364      423        2      -1.20000000      -1.20000000
O        8.34264391      17.98359755       2.14662512      15.99940000      -0.34472723       0.28874987      -0.39943259      424        2      -1.20000000      -1.20000000
O       16.55487245      21.79246566      13.79089785      15.99940000      -0.75534473      -0.98430886      -0.00028071      425        2      -1.20000000      -1.20000000
O       12.53443808      22.63820559       7.67461595      15.99940000       0.25365249       0.77994069      -0.38786987      426        2      -1.20000000      -1.20000000
O       20.31909746       1.97789248       2.82386007      15.99940000      -0.97447607      -0.23290150      -0.36511056      427        2      -1.20000000      -1.20000000
O       19.07191770      22.24145066       3.36256517      15.99940000       0.09465868      -1.29583315       0.65300826      428        2      -1.20000000      -1.20000000
O        4.87653566      10.38538834       0.84944062      15.99940000      -0.15597294      -0.38508291       1.53204416      429        2      -1.20000000      -1.20000000
O        6.34203294       9.62292114      18.82778838      15.99940000       0.21993336       0.78573337      -0.20603037      430        2      -1.20000000      -1.20000000
O       13.83078989      22.01616340      17.05242341      15.99940000      -0.72411755       1.06377054      -0.25182379      431        2      -1.20000000      -1.20000000
O       18.96769695      10.36225466       1.14845420      15.99940000      -0.27542059       0.27923737       0.88976669      432        2      -1.20000000      -1.20000000
O        9.13335819       4.85998155       8.45464963      15.99940000       0.28401090       0.12855254       0.10691310      433        2      -1.20000000      -1.20000000
O        7.38571467      11.50977971      20.58769923      15.99940000      -0.39865646       0.38098234       1.34779372      434        2      -1.20000000      -1.20000000
O       10.44285331       3.62228622       1.81855299      15.99940000      -0.08215388      -0.85479665      -0.20742037      435        2      -1.20000000      -1.20000000
O       13.32854075       0.75878256      13.33769681      15.99940000       1.48703892      -0.64237737       0.23232185      436        2      -1.20000000      -1.20000000
O       13.80229538      15.49180299      11.66173225      15.99940000      -0.19847251       1.00008627       0.16978940      437        2      -1.20000000      -1.20000000
O       18.67317535      15.17580713       9.90564838      15.99940000       0.23912597      -0.27472282       0.34642034      438        2      -1.20000000      -1.20000000
O       15.83820883       6.89525030      18.88988071      15.99940000      -0.77281294       0.41758392       0.66927922      439        2      -1.20000000      -1.20000000
O       21.97634896       2.68663622      14.48949487      15.99940000       0.18405899      -0.16643538      -0.58771721      440        2      -1.20000000      -1.20000000
O       13.01418700       2.17090070      15.65076220      15.99940000      -0.39762290       0.31640413       0.65523501      441        2      -1.20000000      -1.20000000
O       17.81699164       1.78406064       6.11139789      15.99940000      -0.49398494      -0.10520218      -0.32266119      442        2      -1.20000000      -1.20000000
O       -0.39062201      18.16596477      12.62572493      15.99940000       0.50783849       0.70727623       0.46913293      443        2      -1.20000000      -1.20000000
O       14.93582619       9.18409010      17.93532068      15.99940000       0.69194596      -1.34238880      -0.06522825      444        2      -1.20000000      -1.20000000
O       21.03305504       9.88981360       6.76928730      15.99940000       0.45475292       0.87542548      -0.61845427      445        2      -1.20000000      -1.20000000
O       14.71786813      21.45805073       8.74416179      15.99940000       0.10247183      -0.32008442       0.44263386      446        2      -1.20000000      -1.20000000
O       14.35523500      11.18100665       0.18667058      15.99940000      -0.53667515      -0.13700885      -0.25329515      447        2      -1.20000000      -1.20000000
O       13.10227138      20.36025296      22.07870517      15.99940000       0.07709863       0.33178703      -0.83208016      448        2      -1.20000000      -1.20000000
O       12.63332199      20.55074856       2.93888637      15.99940000      -0.26264072      -1.13859318      -0.29043442      449        2      -1.20000000      -1.20000000
O        4.21494830      12.13670899      17.54245736      15.99940000      -0.53577216       0.11781545      -0.06991517      450        2      -1.20000000      -1.20000000
O       20.28998449      16.54155351      21.18807653      15.99940000       0.09182262       0.04943828      -0.29760794      451        2      -1.20000000      -1.20000000
O       22.07287959       0.81217486       4.24662421      15.99940000       0.45903718      -0.01547075      -0.19965319      452        2      -1.20000000      -1.20000000
O        4.32344538       9.93048896      10.43620628      15.99940000      -0.84888772       0.12849305       0.04524076      453        2      -1.20000000      -1.20000000
O       20.63993424      13.53744340      12.93660686      15.99940000      -0.79735824      -1.73763223       1.63776679      454        2      -1.20000000      -1.20000000
O        1.85937203       1.94397049      17.86432097      15.99940000      -1.01243883      -0.34479063       0.48852866      455        2      -1.20000000      -1.20000000
O       20.54933447      12.05407121       2.45747688      15.99940000       0.86709173      -0.36503858      -0.77274337      456        2      -1.20000000      -1.20000000
O        5.33911078      11.92687702      11.61432154      15.99940000       0.13019456      -0.56219113      -0.63293282      457        2      -1.20000000      -1.20000000
O        0.89009944      16.40854520       7.37381927      15.99940000       0.59573547      -0.23416803       0.72711589      458        2      -1.20000000      -1.20000000
O        7.58009418      20.13702674       3.47420988      15.99940000      -0.33532393       0.02466098      -0.71511640      459        2      -1.20000000      -1.20000000
O       20.91364607      19.38172539      19.36243447      15.99940000       0.41941638      -0.00383879       1.04476591      460        2      -1.20000000      -1.20000000
O       19.77312772       9.19649843       9.18311806      15.99940000       0.06878719      -0.03902101      -0.25203117      461        2      -1.20000000      -1.20000000
O       15.58637805       8.41183651      11.38754490      15.99940000       0.21825585       0.22231837      -0.52736469      462        2      -1.20000000      -1.20000000
O        6.56948087      20.32346144       0.59321676      15.99940000      -0.30808601       0.15173491       0.12893986      463        2      -1.20000000      -1.20000000
O        4.60313847      10.86652374       5.71755966      15.99940000       0.83181358       0.63239160      -0.60159910      464        2      -1.20000000      -1.20000000
O        9.50159513       4.66271697       4.09232751      15.99940000      -0.61280214      -1.14947868      -1.53771836      465        2      -1.20000000      -1.20000000
O        0.27004491       2.13162686      10.30986286      15.99940000      -0.16221026      -0.66432108       0.53261503      466        2      -1.20000000      -1.20000000
O       16.62553904       7.72047773      16.46805842      15.99940000      -0.24439080       0.50626051      -0.50234735      467        2      -1.20000000      -1.20000000
O       16.11915226      22.69855303       1.36221018      15.99940000       0.69500590      -0.94552360      -0.59262615      468        2      -1.20000000      -1.20000000
O       13.25675149      16.97228887       6.55140503      15.99940000      -0.06824370       0.59790608      -0.77863713      469        2      -1.20000000      -1.20000000
O       -0.32263163       8.40218586      17.05068105      15.99940000       0.39504721       0.00237849       0.51609451      470        2      -1.20000000      -1.20000000
O        2.96425496      20.74290378      20.19701877      15.99940000       0.28604968      -0.21458016       0.80864531      471        2      -1.20000000      -1.20000000
O       10.30848241      21.10540738      13.02178848      15.99940000       0.37557781       1.08500653      -0.12914285      472        2      -1.20000000      -1.20000000
O        5.51779324      15.92074231      20.39709455      15.99940000      -0.05883896      -0.73183759      -0.78691974      473        2      -1.20000000      -1.20000000
O        2.29889247      17.99629153       3.94579335      15.99940000      -1.28419902      -0.61569017      -0.19721832      474        2      -1.20000000      -1.20000000
O        2.45747995      15.50133074      15.87880927      15.99940000       0.28511924       0.31062628       0.53068725      475        2      -1.20000000      -1.20000000
O        9.75054474       9.02314060       2.95217103      15.99940000       0.47682737       0.64262907      -0.49620816      476        2      -1.20000000      -1.20000000
O       21.43083924      16.72768303      14.48828117      15.99940000       1.29055471       1.31659153      -0.66773241      477        2      -1.20000000      -1.20000000
O       20.30124389       4.84698068      14.32013117      15.99940000       0.13142459       0.00466520      -0.67386589      478        2      -1.20000000      -1.20000000
O        3.66574114      20.18033891      13.83178202      15.99940000       0.12911899      -0.04712963      -0.16210811      479        2      -1.20000000      -1.20000000
O        8.84030786       2.13672536       4.71969224      15.99940000      -0.71965032       0.63398727      -1.32709442      480        2      -1.20000000      -1.20000000
O       19.75432863       4.45373954       1.67611724      15.99940000       0.31968275      -0.55242101      -0.24457190      481        2      -1.20000000      -1.20000000
O       19.54062589      14.15307956      15.30586112      15.99940000      -1.48270526       0.09455868      -0.04257774      482        2      -1.20000000      -1.20000000
O       17.14201123      12.37245403      20.53060546      15.99940000      -0.04686867       0.73035344      -0.24878091      483        2      -1.20000000      -1.20000000
O        6.13052315      22.18989344      16.45611187      15.99940000      -0.18212696      -0.97054370      -0.54535783      484        2      -1.20000000      -1.20000000
O       16.94603944      21.86464182      11.27471270      15.99940000      -0.29394338      -0.53136502       0.14848344      485        2      -1.20000000      -1.20000000
O       16.54706105      17.95919783      16.06811162      15.99940000       0.01712544      -0.81180702      -0.16224141      486        2      -1.20000000      -1.20000000
O       16.79476803      16.27501046       4.79944390      15.99940000      -0.25283771      -0.66677290       1.27301668      487        2      -1.20000000      -1.20000000
O        9.25769380      16.40422764      10.46359140      15.99940000       0.09867479       0.12280284      -1.56512897      488        2      -1.20000000      -1.20000000
O       14.38585141       9.64744817       2.51256546      15.99940000       0.41683188      -0.95182591       0.50644406      489        2      -1.20000000      -1.20000000
O       16.77568923       1.08012288      17.02223817      15.99940000      -0.12685943      -1.22959266      -0.64730023      490        2      -1.20000000      -1.20000000
O        1.65845274       6.21640249      13.80728457      15.99940000      -0.48205768       0.09124473      -0.41465432      491        2      -1.20000000      -1.20000000
O        9.21506524       9.22324309       7.10009109      15.99940000       0.11379587       0.50783114       0.18988621      492        2      -1.20000000      -1.20000000
O       11.83180835       1.48349574       1.49215047      15.99940000      -1.00948816      -0.51487666      -0.63034139      493        2      -1.20000000      -1.20000000
O       12.16695751      19.99514464      17.59953754      15.99940000       0.96203706       0.14204250      -0.67737729      494        2      -1.20000000      -1.20000000
O        4.38133092       8.22460494       5.22249212      15.99940000       0.01645685       0.28342580       0.51097299      495        2      -1.20000000      -1.20000000
O       15.20879822       2.49395667      20.73858857      15.99940000       0.04988864      -0.36849383       0.22931409      496        2      -1.20000000      -1.20000000
O       16.12799560       7.78332647      13.87737171      15.99940000       0.01690126      -0.73903692      -0.15908957      497        2      -1.20000000      -1.20000000
O        2.49310871       8.62590907      14.02629416      15.99940000       0.90074901      -0.55007945      -0.22098010      498        2      -1.20000000      -1.20000000
O        2.00526836       8.80089028      20.55285509      15.99940000       0.02192372      -0.33909811       0.50673677      499        2      -1.20000000      -1.20000000
O       21.59191055       7.06846920       3.15044395      15.99940000       0.95981356       0.03829961      -0.61775715      500        2      -1.20000000      -1.20000000
O        3.72087359      10.56471428      13.07369925      15.99940000       0.72977351      -0.40451354       0.43430147      501        2      -1.20000000      -1.20000000
O        4.88903006       7.29726844      17.97364987      15.99940000      -0.75774859      -0.78986455      -0.29864267      502        2      -1.20000000      -1.20000000
O        0.82883416       6.07550155       7.87926089      15.99940000       1.56616508       0.97583488      -0.32182810      503        2      -1.20000000      -1.20000000
O       10.03154923      18.13374279      20.17386383      15.99940000      -1.35811833      -0.14403879       0.12496521      504        2      -1.20000000      -1.20000000
O       11.30433206      20.65061268       0.62069234      15.99940000       1.04489820      -0.78424150       0.33152651      505        2      -1.20000000      -1.20000000
O        6.99767578       7.12181826      14.24427766      15.99940000       0.05125302       0.10954222      -0.94381594      506        2      -1.20000000      -1.20000000
O        0.97081255      13.84021859       3.22160182      15.99940000       0.18726232      -0.45739199      -0.40051331      507        2      -1.20000000      -1.20000000
O        2.65852354      18.53924402      12.08569179      15.99940000       1.16169816      -0.00421479       0.14080726      508        2      -1.20000000      -1.20000000
O        5.81113361      14.78398656       1.84632966      15.99940000      -0.22095399       0.18283758      -0.16445794      509        2      -1.20000000      -1.20000000
O       13.37146172      13.19194689      15.84412036      15.99940000       1.30466392      -0.42154947      -0.38055719      510        2      -1.20000000      -1.20000000
O       -0.15574505       1.07586537      16.50575997      15.99940000      -0.86229962       0.20491533      -0.40662365      511        2      -1.20000000      -1.20000000
O       21.54090150      13.02344209       0.27176848      15.99940000      -0.01893472       0.10611202       0.78226959      512        2      -1.20000000      -1.20000000
O       -0.04597373      15.46947481       4.95727446      15.99940000       0.46498632       0.57976766      -0.12290973      513        2      -1.20000000      -1.20000000
O       10.88914426       5.05569008      20.57539581      15.99940000      -0.54053200       0.90061890      -0.64280505      514        2      -1.20000000      -1.20000000
O       21.99336493       5.06641557       0.57958250      15.99940000      -0.04661747      -1.48196145       0.63255140      515        2      -1.20000000      -1.20000000
O       16.84927922       0.82150656       3.80972185      15.99940000      -0.10610228       0.39005417       0.51761802      516        2      -1.20000000      -1.20000000
O       12.81486935      14.07485908      18.24894367      15.99940000      -1.75093117       1.48705587       0.40694374      517        2      -1.20000000      -1.20000000
O        3.17039673      14.49533894      18.22471571      15.99940000      -0.18142915      -0.09093658       0.72124942      518        2      -1.20000000      -1.20000000
O        5.77884002       1.58725811       2.15797366      15.99940000       0.14875731       0.89577055      -0.42521170      519        2      -1.20000000      -1.20000000
O        2.10408277      17.60361466       9.55719266      15.99940000      -0.72865974       0.24738421       0.70866142      520        2      -1.20000000      -1.20000000
O       10.93163552       7.58099663       8.47831168      15.99940000      -0.40195868       1.00828733      -0.07484547      521        2      -1.20000000      -1.20000000
O        5.78675626       2.60906056       6.88732573      15.99940000       0.10136692      -0.62834634       0.16790113      522        2      -1.20000000      -1.20000000
O       16.05047783       3.44095517       6.96113412      15.99940000       0.04790568       0.24236116       0.39405987      523        2      -1.20000000      -1.20000000
O        2.24185178       0.55450014       9.52558384      15.99940000       1.44487104       1.39866470      -0.94448889      524        2      -1.20000000      -1.20000000
O        4.18626737       2.45651957      19.01580958      15.99940000      -1.03335968      -0.56820982      -0.50689561      525        2      -1.20000000      -1.20000000
O       15.11224067      19.83982142      14.06108510      15.99940000       0.21734340       0.65945032      -1.02807481      526        2      -1.20000000      -1.20000000
O        9.40188543       9.32674186       0.35530442      15.99940000       0.27829899       0.23828213       0.40894625      527        2      -1.20000000      -1.20000000
O        6.70330324      14.73384451      22.45386559      15.99940000      -0.28237388      -0.17280695       0.64076721      528        2      -1.20000000      -1.20000000
O       13.92742302      20.22133312      19.53618574      15.99940000       0.42426139      -0.72769991      -0.07853383      529        2      -1.20000000      -1.20000000
O       11.34899507      13.96303926      14.65026249      15.99940000       0.49979858       1.25629134       0.21890006      530        2      -1.20000000      -1.20000000
O        6.04156082       3.48520615       0.15379695      15.99940000       0.46697203      -0.84073152      -0.73466274      531        2      -1.20000000      -1.20000000
O       15.49837637      21.35093495      21.50214852      15.99940000      -0.41936638       0.23732621       0.99303722      532        2      -1.20000000      -1.20000000
O       10.53855494      13.69262093       8.11925738      15.99940000       0.34299536       0.26296964      -0.12013249      533        2      -1.20000000      -1.20000000
O        7.91032096      19.32042553      21.40948769      15.99940000      -0.44037049      -0.37793163      -0.68509148      534        2      -1.20000000      -1.20000000
O        2.71908471       6.30842112      16.46403485      15.99940000       0.16614242       1.42824963      -0.58328093      535        2      -1.20000000      -1.20000000
O       14.03252138       2.71426612       1.25180008      15.99940000      -0.83384747      -1.34934558      -0.41478468      536        2      -1.20000000      -1.20000000
O        8.97036336      11.83218360      16.10064231      15.99940000      -0.58194422       0.59606046       0.72842216      537        2      -1.20000000      -1.20000000
O        6.57378812       0.49268630      22.59765500      15.99940000      -0.27787227      -0.09730539      -0.48709567      538        2      -1.20000000      -1.20000000
O        7.49747217      18.04897555      11.50818322      15.99940000      -0.24429017       1.30018516      -0.48435392      539        2      -1.20000000      -1.20000000
O        0.11026493       9.24976353       2.70323422      15.99940000      -0.20078490      -0.90640971      -0.60744429      540        2      -1.20000000      -1.20000000
O        2.10321519       4.42222668       9.78224149      15.99940000      -0.60795912      -0.50236704      -0.32100641      541        2      -1.20000000      -1.20000000
O       17.82040284       2.23273625      14.91390998      15.99940000      -0.34226977      -0.11170175      -0.41670829      542        2      -1.20000000      -1.20000000
O       15.72835122       4.42788745       0.14012949      15.99940000       0.49470170      -0.41785068       0.04027643      543        2      -1.20000000      -1.20000000
O       11.38400865       8.24808101       5.97381261      15.99940000      -0.08217412      -0.85986102      -0.48110536      544        2      -1.20000000      -1.20000000
O       13.72697166      18.55927022       4.36805945      15.99940000       0.36524443       1.05194789       0.79699285      545        2      -1.20000000      -1.20000000
O       17.61040656       1.16190371      12.46758571      15.99940000      -0.77630880      -0.94390391       0.32260542      546        2      -1.20000000      -1.20000000
O        1.25089827       4.13601459      22.63626079      15.99940000       1.02875897       0.32875821      -0.67649981      547        2      -1.20000000      -1.20000000
O        2.31889288      18.00964112      14.58634904      15.99940000      -0.19692465      -0.66218269      -0.06549693      548        2      -1.20000000      -1.20000000
O       11.31444177       1.64436426       9.45640198      15.99940000       0.36125271      -0.39198459      -0.08543490      549        2      -1.20000000      -1.20000000
O        6.13109689      21.39648725      13.99074773      15.99940000       0.18838244       0.52688948       2.07652310      550        2      -1.20000000      -1.20000000
O       15.85625130       3.57395894      10.36209289      15.99940000       1.11892695       0.30806261      -0.28131220      551        2      -1.20000000      -1.20000000
O        3.27716232      -0.15262107      18.62685637      15.99940000      -0.45768130      -0.39481551      -0.91468263      552        2      -1.20000000      -1.20000000
O       10.01908853       9.52020512      14.82917237      15.99940000       0.19407492       0.26461513       1.01378143      553        2      -1.20000000      -1.20000000
O       17.82713861      14.74163782       6.65113180      15.99940000       1.16902787       1.22452358       0.70002355      554        2      -1.20000000      -1.20000000
O        7.49678143      21.81398665      22.27651215      15.99940000       1.08030377      -0.49812346       0.14349101      555        2      -1.20000000      -1.20000000
O       12.00888023      22.13229236      11.29434682      15.99940000      -0.16597862       0.54675172       0.07806017      556        2      -1.20000000      -1.20000000
O        6.62536298       2.93817133      11.83077955      15.99940000      -0.62269267      -0.86903742      -0.18404583      557        2      -1.20000000      -1.20000000
O       18.87620475       8.35237211       6.88696422      15.99940000      -0.15113097      -0.09671863      -0.26736737      558        2      -1.20000000      -1.20000000
O        0.89596558      13.81968367       6.71845842      15.99940000       1.31893657       0.46761151      -0.12247097      559        2      -1.20000000      -1.20000000
O        7.95319924       4.48951180       6.07438744      15.99940000       0.25101782       0.15932218       0.16392864      560        2      -1.20000000      -1.20000000
O       17.53594991       3.72245748      12.55700588      15.99940000       0.09474198      -0.66654427       0.56341984      561        2      -1.20000000      -1.20000000
O       18.68748444      16.86399247      19.11848004      15.99940000       0.47755859      -0.24828949       0.10990186      562        2      -1.20000000      -1.20000000
O       16.50943254       9.79400740       1.12632038      15.99940000      -0.07548306       0.71323507      -0.26270609      563        2      -1.20000000      -1.20000000
O        7.57109355      11.43050441       6.95046217      15.99940000       0.77299011       0.74032356      -1.32405338      564        2      -1.20000000      -1.20000000
O        5.50609892      15.11510299      15.59861987      15.99940000      -0.15923415       0.00774239       0.47151589      565        2      -1.20000000      -1.20000000
O        3.53793134      11.93003588      22.29199245      15.99940000       0.67902285       0.08184184      -0.42064007      566        2      -1.20000000      -1.20000000
O       20.69239886      16.20111360       8.25191803      15.99940000      -0.07275148      -0.21934309       0.83122219      567        2      -1.20000000      -1.20000000
O       11.17130890      17.58420261       9.37004641      15.99940000       0.61166127       0.56453049      -0.17396147      568        2      -1.20000000      -1.20000000
O       14.31131251       5.43801364       7.36908586      15.99940000      -0.15009780       0.42800608      -0.35804495      569        2      -1.20000000      -1.20000000
O        3.49074198      15.84997475       0.80329727      15.99940000      -0.75075314       0.82252902       0.05705155      570        2      -1.20000000      -1.20000000
O        8.20585441      11.98994273       9.41671101      15.99940000       0.51873422       0.02568754      -1.41420635      571        2      -1.20000000      -1.20000000
O        0.36657354       0.35002807       6.59716877      15.99940000      -0.34355064      -0.53601139      -0.20165383      572        2      -1.20000000      -1.20000000
O       10.36939603      13.73832043      17.58599104      15.99940000       1.00404778       0.20041758      -0.13858193      573        2      -1.20000000      -1.20000000
O        7.64324306      14.18968632      20.14947533      15.99940000       0.77445394       0.55555204       0.49297614      574        2      -1.20000000      -1.20000000
O        8.28136857      22.48207292       4.78324509      15.99940000      -0.53493260      -1.27139930       0.40537012      575        2      -1.20000000      -1.20000000
O       15.72691118       4.27532995       2.77361243      15.99940000       0.60815173       1.24953750       0.08810302      576        2      -1.20000000      -1.20000000
O        0.27656513      17.89397439      19.19750404      15.99940000       0.05277624      -0.09816015      -0.68553899      577        2      -1.20000000      -1.20000000
O       13.29359876       5.32214728      14.67643761      15.99940000      -1.20230352       0.39189652       0.05370105      578        2      -1.20000000      -1.20000000
O       19.85218181       2.70512202      22.10384677      15.99940000       0.13411376      -0.24561601      -0.75574737      579        2      -1.20000000      -1.20000000
O       16.09802172      11.74792802       4.84850401      15.99940000      -0.29506195       0.07477922       0.48003311      580        2      -1.20000000      -1.20000000
O       11.15144298       7.43937204      13.50747186      15.99940000       0.15039117       0.29460781       0.33838010      581        2      -1.20000000      -1.20000000
O       14.72905118      13.63084439       9.91744016      15.99940000      -0.75591818       0.08074198      -0.17738769      582        2      -1.20000000      -1.20000000
O       -0.13773952      20.27257179       6.04339224      15.99940000       0.09732270      -0.15085572      -1.19825249      583        2      -1.20000000      -1.20000000
O       10.04113018      10.23697229      21.17572954      15.99940000      -1.23906296      -0.08591000      -0.70281727      584        2      -1.20000000      -1.20000000
O        6.67812911      13.72878864       7.96748331      15.99940000      -0.17028481      -0.30426224      -0.52371759      585        2      -1.20000000      -1.20000000
O        7.41648317      21.64164576      18.57817415      15.99940000       0.10096661      -0.07205281      -0.17197603      586        2      -1.20000000      -1.20000000
O        0.75857992      16.39329098      22.29759845      15.99940000      -1.09583712      -1.10148502       0.81466138      587        2      -1.20000000      -1.20000000
O        8.17691333      18.33036315      14.19017739      15.99940000       0.19214798       1.29895742      -0.70044310      588        2      -1.20000000      -1.20000000
O        0.46225008      20.61493085      19.54106726      15.99940000       0.96054047       1.30713223      -0.13522969      589        2      -1.20000000      -1.20000000
O       17.60538397       7.93175373       9.77608017      15.99940000       0.52137025      -0.72204932       0.06361332      590        2      -1.20000000      -1.20000000
O       15.72136929       5.66284559      15.39858272      15.99940000      -0.06424393       0.09560097      -0.31930238      591        2      -1.20000000      -1.20000000
O       20.18535058       0.93024857      20.14062337      15.99940000      -0.32288003       0.04784022      -0.91321055      592        2      -1.20000000      -1.20000000
O        2.64671042      12.05119411      11.21982047      15.99940000       0.09347890       0.47086572       0.77654347      593        2      -1.20000000      -1.20000000
O       19.69939865      14.42996490      19.73690085      15.99940000       0.78035016       0.52581448       1.13282110      594        2      -1.20000000      -1.20000000
O       10.77425395      18.97234192      14.70469609      15.99940000       0.28533592       0.09821760       0.93137009      595        2      -1.20000000      -1.20000000
O       -0.40235253       4.44292001       9.51088683      15.99940000       1.00446828      -0.02566696      -0.92986206      596        2      -1.20000000      -1.20000000
O       -1.02375637      15.63329418      11.98740290      15.99940000       0.05081269       0.33841467       0.46853483      597        2      -1.20000000      -1.20000000
O       13.75364231       8.07605634       7.16500735      15.99940000      -1.41980753      -0.23109288       0.12092185      598        2      -1.20000000      -1.20000000
O        2.48806116      -0.34149631      21.10043833      15.99940000      -0.07276008       0.13143425       0.44606307      599        2      -1.20000000      -1.20000000
O        1.77860581      11.34248566       2.90758832      15.99940000      -0.79517698      -0.65659202      -0.36794661      600        2      -1.20000000      -1.20000000
O        1.66843453      18.84858908       7.09436465      15.99940000       0.17807673      -0.40864409       1.08292326      601        2      -1.20000000      -1.20000000
O       22.22791150       3.21835029      18.20626904      15.99940000      -0.09393401       1.29356882      -0.00383456      602        2      -1.20000000      -1.20000000
O        6.76150053      19.59866077      16.94448837      15.99940000       1.29791315       0.05482949       0.89362604      603        2      -1.20000000      -1.20000000
O        1.94946173       6.14168076      21.16575054      15.99940000      -0.24410081       0.51020861       1.18843817      604        2      -1.20000000      -1.20000000
O        9.67329501      13.03103135      20.87928465      15.99940000      -0.26048172       0.14862532       0.18440696      605        2      -1.20000000      -1.20000000
O       -0.81512736      13.22378852      15.30944008      15.99940000       0.81895719       0.54205316      -0.51241986      606        2      -1.20000000      -1.20000000
O       15.47140901      12.67110050      12.89602370      15.99940000       0.13980197      -0.30933454      -1.34684248      607        2      -1.20000000      -1.20000000
O       21.57295446       3.79274191      11.99469203      15.99940000       0.39661102      -0.11309473       1.00324859      608        2      -1.20000000      -1.20000000
O        5.77092018       0.48441768      14.71436211      15.99940000       0.46623663       0.07090487       0.89848682      609        2      -1.20000000      -1.20000000
O       11.32975639       4.27524566       9.53050317      15.99940000      -0.69004148      -0.18928119      -0.56789283      610        2      -1.20000000      -1.20000000
O        7.54757475      13.22336116      11.58557746      15.99940000      -0.51758394      -0.19650821      -0.08275454      611        2      -1.20000000      -1.20000000
O        5.53763278      14.09454819      13.12796768      15.99940000       0.23736117      -0.05276665       0.02241353      612        2      -1.20000000      -1.20000000
O        4.06747268      16.05498167       3.34323697      15.99940000      -0.37969705       1.03379862       0.06490586      613        2      -1.20000000      -1.20000000
O       22.60900087      -0.11554896       9.12438995      15.99940000      -0.64095594      -0.21304481       0.72357685      614        2      -1.20000000      -1.20000000
O       17.12463617      19.34206202       0.48589356      15.99940000      -1.18449052       0.25293154       0.08044020      615        2      -1.20000000      -1.20000000
O       20.91620169      14.03696964      10.16104387      15.99940000      -0.23211339       0.58072234       0.21937463      616        2      -1.20000000      -1.20000000
O        6.81520054       0.10167346       7.39381295      15.99940000       0.19028579       1.06119936      -0.54518859      617        2      -1.20000000      -1.20000000
O       11.89820719       8.04926151      11.05274354      15.99940000      -0.15326625      -0.61884965      -0.46953435      618        2      -1.20000000      -1.20000000
O       13.11169560      16.69636090       1.16515774      15.99940000      -1.59629360      -0.21407742      -0.63985514      619        2      -1.20000000      -1.20000000
O        2.27410339       3.68176534      20.40686510      15.99940000       0.37970027      -0.46956047       1.35349619      620        2      -1.20000000      -1.20000000
O       19.47556361      18.09039254      16.05975418      15.99940000      -0.64900556       0.11324796       0.71999589      621        2      -1.20000000      -1.20000000
O        0.11425705      10.55325411       4.97351848      15.99940000       0.47175720      -0.62900877      -1.25427752      622        2      -1.20000000      -1.20000000
O       18.25752204      21.62739855       0.05736211      15.99940000       0.06733427       0.02026547      -0.37938584      623        2      -1.20000000      -1.20000000
O        7.79243131       8.06420867      11.98615985      15.99940000      -0.94738916      -0.71946255      -0.56228784      624        2      -1.20000000      -1.20000000
O       11.29276395      18.44906907       5.57300360      15.99940000      -0.45256488       0.98995076      -0.71518907      625        2      -1.20000000      -1.20000000
O        2.41238518      21.88781891       0.42881737      15.99940000       1.43317710      -0.34839161       0.06270144      626        2      -1.20000000      -1.20000000
O       15.53807802      12.05550612       2.27581488      15.99940000       0.33041032       0.82555967      -0.32978727      627        2      -1.20000000      -1.20000000
O       20.48786478       2.55904510      10.03204419      15.99940000      -0.07344267      -0.15785751      -0.75306812      628        2      -1.20000000      -1.20000000
O       21.26027411       7.57074564       7.76972031      15.99940000       0.81621801      -1.02112964      -0.56296160      629        2      -1.20000000      -1.20000000
O       10.97720594      21.09046018       5.94044435      15.99940000       0.34383072      -0.12648739      -1.42501978      630        2      -1.20000000      -1.20000000
O       17.80518889      20.00446428       4.36125664      15.99940000      -0.07115032      -0.60544149       0.66119221      631        2      -1.20000000      -1.20000000
O        2.64750162      10.11220124      18.22141255      15.99940000      -0.74063571      -0.68101739       0.44453351      632        2      -1.20000000      -1.20000000
O       12.38937970      12.48282360       9.44511731      15.99940000       0.55524777       0.99106378      -0.28994006      633        2      -1.20000000      -1.20000000
O       19.18736050      19.96068198       2.17694323      15.99940000      -0.82323277       1.47734743       0.96249694      634        2      -1.20000000      -1.20000000
O       19.11990044       0.15867260      16.47445129      15.99940000       0.76236838       0.45599311       0.50762275      635        2      -1.20000000      -1.20000000
O       12.68536190      16.09703127      14.05154514      15.99940000      -0.06665189       0.03359194       0.06964297      636        2      -1.20000000      -1.20000000
O        0.23528318       2.83932234       1.19786338      15.99940000       0.10232813       0.26615084       0.03755727      637        2      -1.20000000      -1.20000000
O        2.94109021      12.19936419       7.33211998      15.99940000      -1.05068178       0.46537883      -0.26631328      638        2      -1.20000000      -1.20000000
O       15.22205439       7.07121074       9.15209020      15.99940000      -0.40280937       0.42823149       0.36446584      639        2      -1.20000000      -1.20000000
O       11.71692062       3.07691295       7.15773448      15.99940000      -1.11997853       0.05579973       1.35484353      640        2      -1.20000000      -1.20000000
O        4.35586077      22.03266239       2.27338737      15.99940000      -0.87656382       0.29170592       0.32937728      641        2      -1.20000000      -1.20000000
O        7.94835948      16.77136073      21.08317818      15.99940000       0.16980328       0.54905546      -0.40142022      642        2      -1.20000000      -1.20000000
O       -0.21939137      11.13478571      16.82627857      15.99940000      -0.41635351       0.04026709       0.03991750      643        2      -1.20000000      -1.20000000
O        3.97556241       2.56602427      14.20113251      15.99940000      -0.54623677       0.17152739      -0.27319421      644        2      -1.20000000      -1.20000000
O        2.79717205      10.81679800      15.66801723      15.99940000       0.39253715       0.39369152      -0.51974055      645        2      -1.20000000      -1.20000000
O       12.51883453      17.90647113      19.28001974      15.99940000       0.90938727      -0.49526860      -1.11743045      646        2      -1.20000000      -1.20000000
O        8.49015060      13.99740689       1.52441220      15.99940000       0.33338720      -1.24745147       0.37597876      647        2      -1.20000000      -1.20000000
O        5.39165935       7.71024392       0.73785262      15.99940000      -0.44979864       0.33298721       0.55174019      648        2      -1.20000000      -1.20000000
O       13.19886263      19.29044525       9.44342796      15.99940000      -0.88536329       1.35017346      -1.10191998      649        2      -1.20000000      -1.20000000
O        4.49708732      16.86389883      10.59644307      15.99940000       0.48881429      -0.34516314      -0.47434746      650        2      -1.20000000      -1.20000000
O       18.20622045      10.30106191      19.23486546      15.99940000      -0.91414822      -0.02709449       0.21930307      651        2      -1.20000000      -1.20000000
O        6.42850522      12.67266024       0.44372598      15.99940000       1.13205868       0.34186983       0.15328095      652        2      -1.20000000      -1.20000000
O        0.52161683       8.55692030       6.71088443      15.99940000       0.79271910       1.34445526       0.34525184      653        2      -1.20000000      -1.20000000
O        4.83844661       9.56464975      16.71405506      15.99940000      -0.11515374      -0.14038449      -1.07055342      654        2      -1.20000000      -1.20000000
O        1.30555910       2.18171144       5.03124413      15.99940000      -0.68507920       0.57696568      -0.43638164      655        2      -1.20000000      -1.20000000
O       11.61742136       7.97772047      16.19737783      15.99940000      -0.28542346      -0.36538003       0.32889773      656        2      -1.20000000      -1.20000000
O       15.95093489       4.98823289      20.70762417      15.99940000       1.10428469      -0.96629577       0.72762726      657        2      -1.20000000      -1.20000000
O       11.56828391      14.37655697      22.30319460      15.99940000      -0.33852495      -0.17321018       0.53738113      658        2      -1.20000000      -1.20000000
O        7.24837162       3.70479088      20.81813324      15.99940000       1.21909850      -0.43544979      -0.56066376      659        2      -1.20000000      -1.20000000
O       16.56337963       6.04948547      11.39967379      15.99940000      -0.34900339      -0.58015650       0.46902747      660        2      -1.20000000      -1.20000000
O        2.07531305       4.06917416      15.13479236      15.99940000       0.18936854      -1.38524324      -0.53191144      661        2      -1.20000000      -1.20000000
O        3.92754315      19.83651371       0.86791721      15.99940000      -1.11994349      -0.23630298      -0.46861899      662        2      -1.20000000      -1.20000000
O        6.74462695      16.70608071      17.23214364      15.99940000      -0.45851976       0.48047519       0.23747779      663        2      -1.20000000      -1.20000000
O        0.84155791      15.76837167      17.89748046      15.99940000      -0.06604815      -0.96879226       0.35113257      664        2      -1.20000000      -1.20000000
O       10.64471199       7.12416229      18.58301699      15.99940000       0.32737280       0.55509298      -1.09491658      665        2      -1.20000000      -1.20000000
O       13.61842413       2.92898063       8.96525204      15.99940000       0.87686688       0.32336612      -0.17897500      666        2      -1.20000000      -1.20000000
O        7.59614162       5.38485691      12.22383236      15.99940000      -1.04127822       0.19511237       0.52781586      667        2      -1.20000000      -1.20000000
O       21.32065568      20.66162894      12.60810258      15.99940000       0.53635101      -0.36008306      -0.34646584      668        2      -1.20000000      -1.20000000
O       14.98563132       5.24743499       5.02526172      15.99940000      -0.55773374      -0.68824697       0.68829040      669        2      -1.20000000      -1.20000000
O        0.00694730       7.60863378      21.91970579      15.99940000       0.93744418       1.58262170      -0.17661602      670        2      -1.20000000      -1.20000000
O       15.63727788      17.27342362       0.24143819      15.99940000       0.02101030      -0.62112130       0.04517096      671        2      -1.20000000      -1.20000000
O        4.25141988       8.72611599       2.76719515      15.99940000      -0.65322425      -0.54507304       0.30167850      672        2      -1.20000000      -1.20000000
O        8.86429423      10.49078277       4.94607617      15.99940000      -0.75462513      -0.57861581       0.50394182      673        2      -1.20000000      -1.20000000
O       12.81824743      14.48141789       7.01987435      15.99940000       0.51960027      -0.69569207       0.61148409      674        2      -1.20000000      -1.20000000
O        4.25398564       0.19974741       4.06344986      15.99940000      -0.14553574      -0.19466529      -0.36841841      675        2      -1.20000000      -1.20000000
O        9.46717663       8.81148216      10.25020252      15.99940000       0.59794613      -1.16618407       0.35327830      676        2      -1.20000000      -1.20000000
O        6.80548763       9.08338906       9.83739838      15.99940000       0.81129709      -0.09724573      -0.69819816      677        2      -1.20000000      -1.20000000
O        0.18282623       5.88161221      15.99927649      15.99940000       1.09818196      -0.76597354       1.12370124      678        2      -1.20000000      -1.20000000
O       18.19682071       0.59169003      22.03107454      15.99940000       0.04682609       0.35150953      -0.01585302      679        2      -1.20000000      -1.20000000
O       21.66631551       9.97623573      22.03039730      15.99940000      -0.55852606      -0.62415813       0.90666302      680        2      -1.20000000      -1.20000000
O       17.06725746      13.92848576      14.63226619      15.99940000      -0.49498422      -0.64797797      -0.49561823      681        2      -1.20000000      -1.20000000
O       17.33699093       9.49828764       5.09321069      15.99940000      -0.92907256      -0.40425434      -0.87769203      682        2      -1.20000000      -1.20000000
O       10.57175886      -0.21147449      20.01384806      15.99940000       0.62590746      -1.05020795      -1.08902254      683        2      -1.20000000      -1.20000000
O       13.39386715       0.07068296       0.07971669      15.99940000       1.24375339       0.37453077       1.16914299      684        2      -1.20000000      -1.20000000
O       17.66895059      13.85299834      12.08084664      15.99940000       0.12199698       0.04822751       0.62281594      685        2      -1.20000000      -1.20000000
O        6.84278374      16.40562463       9.48254059      15.99940000       0.07032492       0.10430658       1.10544349      686        2      -1.20000000      -1.20000000
O        9.23346550       3.43707661      18.77957353      15.99940000      -0.49574791      -0.44457975       1.02531678      687        2      -1.20000000      -1.20000000
O       11.73060191      16.83391019      21.59071121      15.99940000      -0.33615578      -1.51990774       0.26073299      688        2      -1.20000000      -1.20000000
O       10.94387771      19.85581419      10.67152942      15.99940000       0.22580387       0.46989344      -1.06533594      689        2      -1.20000000      -1.20000000
O       14.83002774      12.92026241      21.54809624      15.99940000      -0.54903118      -1.04038346      -0.11416618      690        2      -1.20000000      -1.20000000
O        3.41132050       3.07233547       6.33410049      15.99940000       0.07315877       0.41785123      -0.42066308      691        2      -1.20000000      -1.20000000
O       11.60042973       3.12453049       4.39048062      15.99940000      -0.20934241       0.13311519      -0.18350462      692        2      -1.20000000      -1.20000000
O       12.21500368      16.33654437       4.22731258      15.99940000       0.21437980       0.74362905      -0.57872768      693        2      -1.20000000      -1.20000000
O       14.69981607       0.49035765       2.17645004      15.99940000      -1.05181359       0.16432350      -0.47095240      694        2      -1.20000000      -1.20000000
O        7.85760140       8.86904175      20.74279800      15.99940000      -0.92610102      -0.11561385       0.03429457      695        2      -1.20000000      -1.20000000
O        8.15661131      18.71080086       9.10075045      15.99940000       0.49452063      -0.39165829       0.56488109      696        2      -1.20000000      -1.20000000
O        9.56759902       1.11974087      18.05456924      15.99940000      -1.44186228       0.21746004      -0.73301832      697        2      -1.20000000      -1.20000000
O       19.03509096      20.92611108       9.85761411      15.99940000      -0.29274014      -0.38459988      -0.36012635      698        2      -1.20000000      -1.20000000
O       13.71294040       8.11436749       4.48984951      15.99940000       1.17705986      -0.09483585       1.25624106      699        2      -1.20000000      -1.20000000
O        8.74586761       3.39377257      13.54415193      15.99940000       1.05901396       0.10184857      -0.27024966      700        2      -1.20000000      -1.20000000
O       10.13338768      16.51246262      14.71746242      15.99940000       1.33149468      -1.38569146       0.06366876      701        2      -1.20000000      -1.20000000
O        8.25455849      10.60654864      11.57638802      15.99940000       0.16874433       0.88494311      -0.12697926      702        2      -1.20000000      -1.20000000
O       13.84120554       4.23736729      16.84821567      15.99940000       0.82517643       0.23742517      -0.40925445      703        2      -1.20000000      -1.20000000
O        1.21882580      18.68804273       1.51972199      15.99940000       0.31226809      -0.55590430      -0.04818847      704        2      -1.20000000      -1.20000000
O       15.34313980      16.02805472      17.56749808      15.99940000       0.28034230      -0.47063489       0.62502264      705        2      -1.20000000      -1.20000000
O        2.10124311       4.73870113       4.93110223      15.99940000      -0.69374015       0.84068916      -0.23618141      706        2      -1.20000000      -1.20000000
O        2.21539258       3.30866890      12.44313450      15.99940000      -0.16668148      -0.39169589       0.46040293      707        2      -1.20000000      -1.20000000
O       10.33032019       9.80321383      17.37384714      15.99940000       0.11708239      -0.25041492      -0.70782642      708        2      -1.20000000      -1.20000000
O        4.40701320       1.37652573       0.08276175      15.99940000      -0.36446858       0.53220917      -0.14486656      709        2      -1.20000000      -1.20000000
O        2.20023562      21.11734960       5.60149693      15.99940000      -0.18570604       0.07225366       0.73846650      710        2      -1.20000000      -1.20000000
O       21.38383552      14.62062390       2.60169219      15.99940000      -0.05201342       0.08103862       0.07819015      711        2      -1.20000000      -1.20000000
O        0.63068532      16.50501662       2.74242905      15.99940000      -0.24256123      -0.88136990      -0.39515325      712        2      -1.20000000      -1.20000000
O       14.02060269      11.38527382      11.21240956      15.99940000       0.25816799      -0.77940635       0.17734778      713        2      -1.20000000      -1.20000000
O       12.21409182       0.89060448       5.84389681      15.99940000      -0.24371306      -0.34997345      -0.46473517      714        2      -1.20000000      -1.20000000
O       18.11530943       4.54595710       6.28326411      15.99940000       0.38432814       0.32574705      -0.77814669      715        2      -1.20000000      -1.20000000
O        9.60043992       2.89609959      16.09714208      15.99940000      -0.62813974       0.01362387      -0.15213271      716        2      -1.20000000      -1.20000000
O       15.55438743      14.13986346       3.74860852      15.99940000       0.78855156      -0.07939779       0.06748470      717        2      -1.20000000      -1.20000000
O        5.35042054      14.37712457      10.57216415      15.99940000      -0.23751546       0.56755924       0.39288414      718        2      -1.20000000      -1.20000000
O        6.89367068       6.21447992       7.90363044      15.99940000       0.11062725      -0.70067900       0.80510374      719        2      -1.20000000      -1.20000000
O        6.21301917       4.46580012       9.77695524      15.99940000      -0.33930027      -0.99157051      -1.06548060      720        2      -1.20000000      -1.20000000
O        7.15034885       8.00976610      16.69959526      15.99940000      -0.99977064      -0.61104951      -0.30935850      721        2      -1.20000000      -1.20000000
O       17.70312403      19.03463643      14.20011817      15.99940000      -0.32628760      -0.21937817       0.33948972      722        2      -1.20000000      -1.20000000
O        1.46309329      21.31519984       8.06477193      15.99940000      -0.35078575      -0.86780533       0.25083676      723        2      -1.20000000      -1.20000000
O       10.87369231      18.69113845       2.49131268      15.99940000       0.63717415      -0.60731334       0.30407771      724        2      -1.20000000      -1.20000000
O       11.44286484      10.74924279       3.95172526      15.99940000      -0.80374896      -0.24221510       0.29954284      725        2      -1.20000000      -1.20000000
O       19.59961184      13.65479900       8.04575886      15.99940000      -0.22147156       0.87193178      -0.08215602      726        2      -1.20000000      -1.20000000
O       18.85120204       3.86004650       4.02916164      15.99940000      -0.35814842      -0.04590118      -0.24846600      727        2      -1.20000000      -1.20000000
O       14.32416055       1.60393875      11.10107314      15.99940000      -0.34011968       0.04418452      -1.01227203      728        2      -1.20000000      -1.20000000
O       16.10274093      14.61711859      19.73420016      15.99940000      -0.26196507       0.25687409       0.29330478      729        2      -1.20000000      -1.20000000
O       20.40759471       7.34251556      13.29007972      15.99940000       0.64995832       0.63185838      -0.87209206      730        2      -1.20000000      -1.20000000
O       20.16969455       7.80509254      21.17673888      15.99940000       0.31785515      -0.03966279       0.07808710      731        2      -1.20000000      -1.20000000
O       -0.30610307      18.22494173       8.55770326      15.99940000      -0.34713652      -0.46414569       0.56861136      732        2      -1.20000000      -1.20000000
O        8.02470002      14.45586702      16.72106550      15.99940000      -1.18542199       0.03726498      -0.22907398      733        2      -1.20000000      -1.20000000
O       15.53364030       0.28869860      19.24370257      15.99940000       0.10797167       0.39037519       0.55422750      734        2      -1.20000000      -1.20000000
O        1.85646009       0.90123249       0.73480996      15.99940000      -0.19902946       0.04927080      -0.18885264      735        2      -1.20000000      -1.20000000
O       10.52299194      16.57954123       0.95091428      15.99940000       1.03883302      -0.17447674      -0.58349133      736        2      -1.20000000      -1.20000000
O        5.76666333      14.14007503      17.99140736      15.99940000      -0.04772770       0.36587047       0.43880216      737        2      -1.20000000      -1.20000000
O       17.10769151      12.63593693       8.18672305      15.99940000      -1.12314068       0.49480614      -1.53226375      738        2      -1.20000000      -1.20000000
O       13.54471802      12.36109650       4.09732775      15.99940000       0.22664653      -0.45280124      -0.78896007      739        2      -1.20000000      -1.20000000
O       20.85137334       1.23613884       7.75997438      15.99940000      -0.20248016       0.33976774       0.18444453      740        2      -1.20000000      -1.20000000
O        5.93222815      11.29824882       8.83145139      15.99940000      -0.09995666       0.01592969      -0.04732036      741        2      -1.20000000      -1.20000000
O        4.80448832       4.34339007      20.89865944      15.99940000       0.51500043      -1.03154189      -0.33329617      742        2      -1.20000000      -1.20000000
O        4.93615386      20.74165492      18.44861076      15.99940000       0.97958300      -1.70940850       0.56905450      743        2      -1.20000000      -1.20000000
O       18.55262923       2.81718631       8.32323608      15.99940000      -0.19871200      -1.56627727       0.43783257      744        2      -1.20000000      -1.20000000
O       20.45085117       9.81984985      17.79858951      15.99940000      -0.05374498       1.21921816       0.40361784      745        2      -1.20000000      -1.20000000
O        7.42324014       5.33953756      16.04957841      15.99940000       0.14460043       0.11507281      -0.58210488      746        2      -1.20000000      -1.20000000
O       16.23353381      15.57332349      10.68281089      15.99940000       0.63646362      -1.02955118       1.00676017      747        2      -1.20000000      -1.20000000
O       18.42720388      19.43995077      19.89417728      15.99940000      -0.13181022       0.85432355       0.66886079      748        2      -1.20000000      -1.20000000
O       19.27145469       5.40243565      22.19890799      15.99940000      -1.01334727      -0.25545043       0.82324120      749        2      -1.20000000      -1.20000000
O       19.73204924       6.17111307       4.81439039      15.99940000       1.20399449       0.06815369      -0.62560973      750        2      -1.20000000      -1.20000000
O        4.81555458       6.64979440       9.76665198      15.99940000       0.30325477      -0.01137843       0.83512106      751        2      -1.20000000      -1.20000000
O        6.55096567      16.45908271      13.44982139      15.99940000      -0.46110378       1.43724737       0.48224674      752        2      -1.20000000      -1.20000000
O       11.72837607      15.75362861      16.57433214      15.99940000       0.12985876      -0.69113885       0.11288171      753        2      -1.20000000      -1.20000000
O       14.15020934      15.91448598       8.94382564      15.99940000       1.64287217      -0.39575560      -0.49424164      754        2      -1.20000000      -1.20000000
O        7.09389103       5.80489950       0.09211881      15.99940000      -0.01905845      -0.09550989       0.35071215      755        2      -1.20000000      -1.20000000
O       11.82658983       5.44354443       2.86645466      15.99940000      -0.33810295       0.88799651      -0.45322794      756        2      -1.20000000      -1.20000000
O        1.02062838      16.09781064      13.69542120      15.99940000       0.02249950       0.92436245      -0.10255515      757        2      -1.20000000      -1.20000000
O       14.28001618      18.54380280      17.35358241      15.99940000       0.90598317       0.88557858       0.74370150      758        2      -1.20000000      -1.20000000
O       12.34777573       5.80038758       0.18737609      15.99940000       0.10435019       0.31964338       0.65676988      759        2      -1.20000000      -1.20000000
O       18.25766903      11.29629214       3.50168759      15.99940000      -0.01294209       0.07276595      -1.02660228      760        2      -1.20000000      -1.20000000
O        7.70773315      18.44491841      19.03607199      15.99940000      -0.83518194      -0.26565855       1.17154296      761        2      -1.20000000      -1.20000000
O       17.96917818      19.72838210       7.66176600      15.99940000      -0.35843277      -0.32688173      -0.24540379      762        2      -1.20000000      -1.20000000
O        3.97940457       4.36672532       3.02447271      15.99940000       0.11897127       0.27035949      -0.75837075      763        2      -1.20000000      -1.20000000
O       21.23587626       4.45064419       3.81463012      15.99940000      -0.73840133      -0.45122626      -0.55227312      764        2      -1.20000000      -1.20000000
O       15.85684626      19.58751079       6.29412105      15.99940000      -1.24672794      -0.12736217       0.57649269      765        2      -1.20000000      -1.20000000
O        5.17735578       4.66401450       5.12094089      15.99940000       0.90863794      -0.92509252      -0.42694374      766        2      -1.20000000      -1.20000000
O        3.85295303       5.01389456      11.52987466      15.99940000       0.47253827       0.17580958      -0.14817052      767        2      -1.20000000      -1.20000000
O       11.42068222      11.54244019      15.62451678      15.99940000      -1.17703218      -0.77446978       0.58597518      768        2      -1.20000000      -1.20000000
O       18.97038073      21.06536762      17.95943450      15.99940000       0.49481992      -0.36248046      -0.45419201      769        2      -1.20000000      -1.20000000
O       19.12570322       9.40066478      14.23787452      15.99940000       0.54731113      -0.63252843      -0.38652634      770        2      -1.20000000      -1.20000000
O       13.87252203      17.96842299      12.40335641      15.99940000       0.46493309       0.31891775      -1.23962248      771        2      -1.20000000      -1.20000000
O       10.81850942      12.83987264       0.56855210      15.99940000       1.26116329      -0.19976784       0.61191113      772        2      -1.20000000      -1.20000000
O       19.51940741      22.58076866      11.81445085      15.99940000       1.46141341      -0.71305233      -0.09592011      773        2      -1.20000000      -1.20000000
O       14.43211375      22.60535274      12.40481276      15.99940000      -0.21419208      -0.12482165       0.58187730      774        2      -1.20000000      -1.20000000
O        1.02834672       3.56598286       7.37948628      15.99940000      -0.22715506       0.51539507       0.02095239      775        2      -1.20000000      -1.20000000
O       11.46222915      14.91985320      10.18760361      15.99940000       0.76803621       1.42878783       0.98613722      776        2      -1.20000000      -1.20000000
O       17.26212481       5.99792352       4.13599941      15.99940000      -0.94715240      -0.22147317       0.11093828      777        2      -1.20000000      -1.20000000
O        6.19065715      15.77342101       6.12091106      15.99940000      -0.31609120       0.46340206       0.53919694      778        2      -1.20000000      -1.20000000
O        9.04466559       3.73315623      10.91414753      15.99940000       0.05900632      -0.28762715      -0.76383806      779        2      -1.20000000      -1.20000000
O       11.36839934      22.41593625      18.16371712      15.99940000       0.26329408      -0.75136021      -0.36938902      780        2      -1.20000000      -1.20000000
O       17.09198083      17.35279712      21.01601878      15.99940000      -0.52033753      -0.61016316       0.50239480      781        2      -1.20000000      -1.20000000
O       18.04345489       6.61994879      20.21927741      15.99940000      -1.17909136       0.24031941       0.52538371      782        2      -1.20000000      -1.20000000
O        9.26307384       6.66751585       6.60175184      15.99940000      -0.00733127       0.65230714      -0.16969802      783        2      -1.20000000      -1.20000000
O        5.73283592      18.63370192       2.31944953      15.99940000       0.58790604       0.76050532       1.29562223      784        2      -1.20000000      -1.20000000
O        2.31440609      20.98178046       2.93484965      15.99940000      -0.29307640       0.85547452       0.59940975      785        2      -1.20000000      -1.20000000
O        4.42758620      18.40874092      19.74114818      15.99940000      -1.23007748      -0.22852317       0.22859453      786        2      -1.20000000      -1.20000000
O       10.89712348       1.63772407      14.22419331      15.99940000      -1.18707137      -0.27868143       0.45458486      787        2      -1.20000000      -1.20000000
O       13.03106791      11.89439731      13.57505132      15.99940000       0.27179114      -0.03989524      -0.66263488      788        2      -1.20000000      -1.20000000
O       15.20324126      20.62237030       3.91325614      15.99940000       0.84748333      -0.14927497       0.54355206      789        2      -1.20000000      -1.20000000
O       18.16918693       2.58152531      19.96810934      15.99940000       0.32698385       0.57568327       0.60248563      790        2      -1.20000000      -1.20000000
O       22.08990555       0.74127741      21.85639675      15.99940000      -1.11601626      -0.33743191      -0.59908383      791        2      -1.20000000      -1.20000000
O       21.14010256      16.15325790      18.67679375      15.99940000       0.23473363      -0.12708361      -0.26493357      792        2      -1.20000000      -1.20000000
O       11.14927459       2.88396753      22.17688133      15.99940000      -0.11707824      -0.49468048       0.20807376      793        2      -1.20000000      -1.20000000
O        6.87677955       0.44112476       4.26407068      15.99940000       0.69091586       0.37222684       0.43320593      794        2      -1.20000000      -1.20000000
O        6.08602793       5.89176486       2.59288549      15.99940000      -0.05506821      -0.58730626      -0.36044987      795        2      -1.20000000      -1.20000000
O       21.92880173       6.00813208      18.31107245      15.99940000       0.43835039      -0.75153975       0.53836982      796        2      -1.20000000      -1.20000000
O       21.60305836      13.32826192      17.94714608      15.99940000       0.52474266      -0.89281889       0.21845905      797        2      -1.20000000      -1.20000000
O       17.66461212      11.62534770      13.82290859      15.99940000      -0.79333304       0.06784870      -0.57669167      798        2      -1.20000000      -1.20000000
O       15.75720774      19.07757638       8.97324313      15.99940000       0.64430717      -0.13493222       0.11822100      799        2      -1.20000000      -1.20000000
O        8.15899458       0.56864112      20.40992388      15.99940000       0.92883952      -0.12088679      -0.23990366      800        2      -1.20000000      -1.20000000
O        0.59751171      -0.06151399      11.57083126      15.99940000       0.69251986      -0.35821164      -1.84444474      801        2      -1.20000000      -1.20000000
801
Lattice="22.502244370340357 0.0 0.0 0.14642250418367406 23.113771075524664 0.0 0.430313391494612 -0.09307582519744555 22.383221092353878" Properties=species:S:1:pos:R:3:masses:R:1:momenta:R:3:id:I:1:type:I:1:initial_charges:R:1:mmcharges:R:1 comment="LAMMPS data file via write_data, version 29 Aug 2024, timestep = 150001, units = metal" pbc="T T T"
Si       3.36086635      11.15456150      15.57984967      28.08600001      -0.46401752      -1.54742938       0.38687398        1        1       2.40000000       2.40000000
Si       7.31256292       1.72387286      10.84998982      28.08600001       1.58849138      -1.17480085      -0.92868016        2        1       2.40000000       2.40000000
Si      14.52211221      14.60117012       5.34474977      28.08600001      -1.82855778       1.57528461      -0.71660240        3        1       2.40000000       2.40000000
Si      17.38042132       0.97803128      19.06354661      28.08600001       0.95686285       0.13240230      -0.08547174        4        1       2.40000000       2.40000000
Si      11.29308943       5.11093130      21.43539929      28.08600001      -0.18389819       0.71435639      -0.45198711        5        1       2.40000000       2.40000000
Si      10.01589498      21.54014856      14.25284771      28.08600001       1.30973013       1.52467521       1.67395556        6        1       2.40000000       2.40000000
Si      21.41383698       7.11876437      10.39632154      28.08600001      -2.26256510       0.38241999       1.20288864        7        1       2.40000000       2.40000000
Si       8.30724248       1.80482216       1.14650314      28.08600001      -1.22387323      -0.93922413       1.06341851        8        1       2.40000000       2.40000000
Si       6.91707801       2.88694897      13.66463440      28.08600001       0.64617078       1.52834334      -0.26755319        9        1       2.40000000       2.40000000
Si       3.15317285      14.27160519      14.93795934      28.08600001       0.48812194       0.04291140      -1.21105377       10        1       2.40000000       2.40000000
Si      22.53758733       2.34963840       1.67324836      28.08600001       1.44403343       0.06398582       0.45486282       11        1       2.40000000       2.40000000
Si      12.41610028      15.30620405      20.95552904      28.08600001      -0.83892695       0.67332126      -0.66992108       12        1       2.40000000       2.40000000
Si      19.05486326      12.84209754       2.49817062      28.08600001      -0.38136096       0.16038764      -0.42774338       13        1       2.40000000       2.40000000
Si      14.93061388      13.40176727      18.11779854      28.08600001       0.99180036      -0.34560419      -1.37320857       14        1       2.40000000       2.40000000
Si      10.20381078      17.51448057       5.72227811      28.08600001       0.87023321       0.94410074       0.49856180       15        1       2.40000000       2.40000000
Si      17.17356436      22.83569897      11.81951712      28.08600001      -0.90326477      -0.79750166       0.05901797       16        1       2.40000000       2.40000000
Si      18.12573092       8.20228764       6.30174239      28.08600001       0.89852180       1.67307455       0.39630828       17        1       2.40000000       2.40000000
Si       2.59918753       5.32701652      13.38071150      28.08600001      -0.53883613       0.54289262      -0.89044916       18        1       2.40000000       2.40000000
Si       9.65703293      20.12099525       0.46510090      28.08600001       0.44697140       0.11089708       0.79514521       19        1       2.40000000       2.40000000
Si       8.52750382       8.46772244       8.49346023      28.08600001       0.39400973       0.49471524       0.03466559       20        1       2.40000000       2.40000000
Si      16.08736077       4.39946256      13.63087743      28.08600001       0.94415909      -0.88969453       0.77130125       21        1       2.40000000       2.40000000
Si      20.28233989       6.32921528       1.08590620      28.08600001       0.40881329      -0.83036008       0.08072327       22        1       2.40000000       2.40000000
Si       9.77475136      15.05293637       0.80662400      28.08600001      -1.38987873      -0.49918604       0.29649189       23        1       2.40000000       2.40000000
Si      10.02431461      12.99816237      15.52615386      28.08600001       0.21621216       1.10060958      -1.15332658       24        1       2.40000000       2.40000000
Si      20.70328804      22.03451113      20.56604794      28.08600001       0.04345724       0.45134973      -0.07166023       25        1       2.40000000       2.40000000
Si      10.18610898      17.79383037      10.48716878      28.08600001      -0.03019364       0.86292509      -0.71494489       26        1       2.40000000       2.40000000
Si       7.98099712      22.67603077      19.20972870      28.08600001      -0.29059095       1.20811255      -0.07366704       27        1       2.40000000       2.40000000
Si       7.76557022      22.03915171       1.94491220      28.08600001       0.42481666       0.73847796      -0.15379748       28        1       2.40000000       2.40000000
Si       2.13452725      18.87116779      17.43022708      28.08600001       1.04529486      -0.69794672      -1.47169511       29        1       2.40000000       2.40000000
Si      19.11650968      14.86048308      19.01440507      28.08600001       0.18008501      -0.38638242       0.20705078       30        1       2.40000000       2.40000000
Si       8.11216758       9.03072203      17.67915525      28.08600001      -0.70217050       0.78216127       0.22225909       31        1       2.40000000       2.40000000
Si       6.28703953       7.03927202      12.15622132      28.08600001       1.24896102      -0.72945432      -0.26038256       32        1       2.40000000       2.40000000
Si       2.41613593      14.18500236      18.93338769      28.08600001      -1.07735092      -0.76918795       0.88291242       33        1       2.40000000       2.40000000
Si      17.76726362      19.72298178       8.25405678      28.08600001       0.45749377      -0.13422624       0.86474223       34        1       2.40000000       2.40000000
Si      17.75161911      11.36546425       6.63067645      28.08600001       0.36417455       0.61829978      -1.09605024       35        1       2.40000000       2.40000000
Si      22.46330248      18.91500330       1.57619618      28.08600001       0.57520876       1.54567050       0.05158918       36        1       2.40000000       2.40000000
Si      17.57540657      13.95250135       4.88289542      28.08600001      -1.45083017      -0.55512764       0.24152932       37        1       2.40000000       2.40000000
Si       4.06926269       2.75448846      14.10770309      28.08600001      -0.30724616       0.07538125      -0.69407802       38        1       2.40000000       2.40000000
Si       2.84012795      21.91552158      17.27696377      28.08600001      -0.73357893       1.12307367      -0.71241177       39        1       2.40000000       2.40000000
Si       3.07756998       7.11286962       7.93886987      28.08600001      -0.15258265       1.26071977       1.29636751       40        1       2.40000000       2.40000000
Si      11.67611578       5.06708482       6.60970348      28.08600001       0.41583753       0.56840708      -0.25945620       41        1       2.40000000       2.40000000
Si      13.90001151       9.53702275       7.03865936      28.08600001       0.06353501      -0.17679481      -0.13748045       42        1       2.40000000       2.40000000
Si      17.74974828      10.01290057       1.45528832      28.08600001      -0.61332269      -1.40049019      -0.18589345       43        1       2.40000000       2.40000000
Si       3.59792315      18.92888419       9.27759158      28.08600001      -0.11758925       1.09881699       0.48924344       44        1       2.40000000       2.40000000
Si      13.72329562       3.30411250      20.96730343      28.08600001      -0.61943162       0.79997151       0.75615773       45        1       2.40000000       2.40000000
Si      16.54549163       4.20558939      22.26386293      28.08600001      -1.28051777       0.74984932       0.47574515       46        1       2.40000000       2.40000000
Si      21.35067728       7.67715356       6.11746303      28.08600001      -0.73197922       0.23746426       1.45329771       47        1       2.40000000       2.40000000
Si       2.54922863       6.33528502      16.41548719      28.08600001       0.44223165      -0.63734626       0.82124065       48        1       2.40000000       2.40000000
Si       9.89390443       1.00781943       9.16826405      28.08600001      -0.79359009      -1.34621666       0.14327842       49        1       2.40000000       2.40000000
Si       4.35537485       2.51051994       0.58056032      28.08600001      -0.70293832       1.00008484      -0.60173825       50        1       2.40000000       2.40000000
Si       5.95685305      22.93905520       6.51139194      28.08600001       0.84168083      -0.01160746       0.56872251       51        1       2.40000000       2.40000000
Si      10.92071964       9.32957728       6.43036009      28.08600001      -0.64862487      -1.22239782       0.98464012       52        1       2.40000000       2.40000000
Si      16.09647844      21.45443403      18.20478452      28.08600001       0.36593762       1.52481707       0.03572510       53        1       2.40000000       2.40000000
Si      19.43318943       0.10918340      15.37709345      28.08600001       0.21661820       1.49468008       1.15243301       54        1       2.40000000       2.40000000
Si       3.88315954      17.83873268      12.16364314      28.08600001      -1.67042047      -0.03581284       1.04162214       55        1       2.40000000       2.40000000
Si      10.41815773       2.92394618      17.67877112      28.08600001      -0.28438204       0.48639123      -0.73500759       56        1       2.40000000       2.40000000
Si      12.88375230       1.22892430       0.69907412      28.08600001      -0.38535001       0.90543145      -0.22272490       57        1       2.40000000       2.40000000
Si       2.40954028       5.59646885       3.43007878      28.08600001      -1.08868464       1.02368081       0.50380134       58        1       2.40000000       2.40000000
Si       7.75944954      16.25270496      18.14868868      28.08600001       1.90131533       2.03608301       0.59568812       59        1       2.40000000       2.40000000
Si      15.09134468      20.33457992      20.89359659      28.08600001       0.54108304       0.20760235       0.10925871       60        1       2.40000000       2.40000000
Si       8.28834889      19.83819972      20.33283313      28.08600001      -1.59551775       0.06854706      -0.11750510       61        1       2.40000000       2.40000000
Si      14.30133203      21.58032583       3.84826223      28.08600001       1.60076960      -0.25291300       0.06864755       62        1       2.40000000       2.40000000
Si       6.91660856       6.89678993      19.65863871      28.08600001      -0.30687406      -1.22936300      -0.35838325       63        1       2.40000000       2.40000000
Si      22.06828853      15.86400369       6.06162755      28.08600001       0.14721002       0.34403171      -0.19146997       64        1       2.40000000       2.40000000
Si      13.15020372      22.19220421      17.52261655      28.08600001       1.04039993      -0.70171089      -0.41670032       65        1       2.40000000       2.40000000
Si       4.73864091      15.98093814       4.98349280      28.08600001      -0.66742293      -1.01622812      -0.44524530       66        1       2.40000000       2.40000000
Si      20.34267530       4.14460674       3.41379485      28.08600001      -0.40245188      -0.47461001       1.40977588       67        1       2.40000000       2.40000000
Si      19.08203053      10.66681950      17.85382944      28.08600001      -0.18374627      -0.84520934       0.39302211       68        1       2.40000000       2.40000000
Si      10.70371693      12.22818266       7.55132849      28.08600001       1.02415365      -0.09614303       1.32126907       69        1       2.40000000       2.40000000
Si       5.22311294       9.75821309      11.13849466      28.08600001      -1.20109831      -0.11544299      -1.10639506       70        1       2.40000000       2.40000000
Si      14.99289858       5.90028743      17.68488479      28.08600001      -1.10264730      -0.56512313      -0.72587133       71        1       2.40000000       2.40000000
Si      22.18200920       4.10221463       9.48421558      28.08600001      -0.06069198      -0.40749284       1.68421588       72        1       2.40000000       2.40000000
Si      11.74664295       0.02618666       5.15022407      28.08600001       0.04035395      -0.10255962       2.21714515       73        1       2.40000000       2.40000000
Si       6.59442913      17.98387673       3.63511001      28.08600001       0.50759864      -0.30238488      -0.59580041       74        1       2.40000000       2.40000000
Si       4.80535845       5.58397646      10.02832110      28.08600001      -1.18636485      -0.62224607      -1.03541710       75        1       2.40000000       2.40000000
Si      13.21463130       9.82634398      12.34163814      28.08600001      -0.36432333      -0.14415690      -1.59128298       76        1       2.40000000       2.40000000
Si      18.60859660       2.27510711       5.14694011      28.08600001       0.74025441       0.27966771       0.27814326       77        1       2.40000000       2.40000000
Si      19.30045374      15.21715896       7.15140608      28.08600001      -0.10765222      -0.67817778      -0.36581348       78        1       2.40000000       2.40000000
Si       2.44907736      21.59517247      14.19852770      28.08600001      -0.63448797       0.59602306      -0.94880932       79        1       2.40000000       2.40000000
Si       0.89521670       7.64004352      12.68729941      28.08600001       0.42918595      -0.28176570       0.74038180       80        1       2.40000000       2.40000000
Si      11.90068457      12.14725058      10.49628916      28.08600001      -1.04806219      -0.31025551       0.04503196       81        1       2.40000000       2.40000000
Si      10.36531967      12.98107248       3.22513550      28.08600001      -1.25577788      -0.23365171       0.03140431       82        1       2.40000000       2.40000000
Si      10.77431643       0.44711687      19.37781849      28.08600001       1.15445512      -1.18157818      -1.31775045       83        1       2.40000000       2.40000000
Si      14.33740402      14.16995944       8.36454205      28.08600001      -0.75249784      -0.41421021       1.76033270       84        1       2.40000000       2.40000000
Si      12.14266217       5.34008912      16.55203956      28.08600001       1.44590598       0.24237262       1.16540050       85        1       2.40000000       2.40000000
Si       5.80383771      22.14262556      11.36996722      28.08600001       0.13230435       0.34354262       0.29733588       86        1       2.40000000       2.40000000
Si      14.98199467       8.51954942      19.51276580      28.08600001      -1.29329615       0.74997364      -0.56696685       87        1       2.40000000       2.40000000
Si       6.89275456       3.83244392       8.60506270      28.08600001       0.30569955       0.91818960      -0.46497663       88        1       2.40000000       2.40000000
Si       6.51080659      11.45216725      22.02222501      28.08600001      -1.46396333      -0.85727228       0.94684999       89        1       2.40000000       2.40000000
Si      13.52502772      18.92188673      13.93838961      28.08600001      -0.53473003      -0.99855924       0.18871741       90        1       2.40000000       2.40000000
Si       9.56404976       1.63807910      14.84058106      28.08600001      -1.86643224      -0.81089010       0.45463678       91        1       2.40000000       2.40000000
Si      14.12520755       1.20208418      15.72826140      28.08600001      -1.24523932      -1.16659348       0.09990045       92        1       2.40000000       2.40000000
Si      21.69535077       8.40896485       3.08936848      28.08600001       0.27419851      -1.04466160      -1.12416167       93        1       2.40000000       2.40000000
Si       9.46051932       4.03605950       4.57834617      28.08600001       0.21914974       0.13683254       0.97322521       94        1       2.40000000       2.40000000
Si      13.75307460      15.97199849      13.10455760      28.08600001       0.24533657       0.56229902      -1.61993179       95        1       2.40000000       2.40000000
Si       6.59686493      12.58994562      11.37362940      28.08600001      -1.18632320      -1.10325270       1.02937822       96        1       2.40000000       2.40000000
Si      22.83626728       5.39546574      21.17387713      28.08600001      -0.77369395       0.43426299      -0.49758482       97        1       2.40000000       2.40000000
Si      22.55009641       2.96111588      19.40885858      28.08600001      -1.82108683      -0.99426442       0.16681789       98        1       2.40000000       2.40000000
Si      15.59607957      12.05691931      15.39659733      28.08600001      -0.49728947      -1.24746101       0.56063374       99        1       2.40000000       2.40000000
Si       8.84879638       8.85481720       2.18460241      28.08600001      -0.40170144       0.34234862       0.51673661      100        1       2.40000000       2.40000000
Si       8.79493575      10.83400223      20.15199834      28.08600001      -0.24270303       0.48411789       0.43232153      101        1       2.40000000       2.40000000
Si      12.64276184      11.26964045      15.29237991      28.08600001       0.44244453      -0.67214057      -0.64264704      102        1       2.40000000       2.40000000
Si      17.46857373       9.57466789      15.35895988      28.08600001      -2.28670786      -0.31662774      -0.49005858      103        1       2.40000000       2.40000000
Si       3.71859164       9.20349054       5.85076710      28.08600001       0.76341088      -1.05785611       1.11916024      104        1       2.40000000       2.40000000
Si      11.14812289       7.42937062      12.71635756      28.08600001      -1.29247708       0.14393275       0.20304423      105        1       2.40000000       2.40000000
Si       1.77805276      18.57824481      14.38090029      28.08600001       0.63523183       0.04426217      -0.25573959      106        1       2.40000000       2.40000000
Si       1.21922100       0.60347726       3.76384392      28.08600001      -0.74653830      -1.14741677       1.20062882      107        1       2.40000000       2.40000000
Si      17.43352675       4.29418114      10.89177557      28.08600001       0.00968579       1.85980315      -0.17761565      108        1       2.40000000       2.40000000
Si       1.54717047       9.15437115      17.07167196      28.08600001      -0.53051925       0.76092623      -0.51331716      109        1       2.40000000       2.40000000
Si      22.45929878       3.48685773      13.85846976      28.08600001      -0.67906188       0.17590964       0.41603633      110        1       2.40000000       2.40000000
Si       2.85562986      14.86192818      11.95461698      28.08600001       0.57946329       0.08088951       1.02741127      111        1       2.40000000       2.40000000
Si      11.37221119      15.89114442      15.18387066      28.08600001      -0.68544100       0.55645064      -0.19033760      112        1       2.40000000       2.40000000
Si       4.65313317      10.81198754       8.29662192      28.08600001       0.56348678       0.45171910       0.73651090      113        1       2.40000000       2.40000000
Si       7.88939822      11.07746163       3.97055172      28.08600001      -0.16577896      -1.77452644      -0.16358323      114        1       2.40000000       2.40000000
Si      11.59303579      20.37704469      11.77870338      28.08600001      -0.13432474      -0.66201374      -1.01097891      115        1       2.40000000       2.40000000
Si      20.20590843      12.38413846       8.18185885      28.08600001      -1.18847958      -0.75921106       1.28611690      116        1       2.40000000       2.40000000
Si      13.28119932       2.31656633       6.27935928      28.08600001      -0.94241070       0.73670388      -1.45273433      117        1       2.40000000       2.40000000
Si      15.81325972       9.03446128      10.74411448      28.08600001      -1.09676961       0.17840088      -2.48242925      118        1       2.40000000       2.40000000
Si      11.75990490      19.92551886      16.14315504      28.08600001       0.88829991       0.03880800       0.20295066      119        1       2.40000000       2.40000000
Si       4.46674292      13.71351471       9.46730351      28.08600001       0.73032022       0.59021776       0.75273428      120        1       2.40000000       2.40000000
Si      20.17592339      11.75597294      11.29240313      28.08600001      -0.68150781      -1.24366978       2.05867269      121        1       2.40000000       2.40000000
Si       0.80642503      13.02385093       5.70432205      28.08600001      -0.94661564       0.60276465       1.38206637      122        1       2.40000000       2.40000000
Si      17.48881666      16.11317069      16.58106214      28.08600001       0.26583612       0.27748916       1.09492651      123        1       2.40000000       2.40000000
Si      15.64563068       0.49408481       1.98761738      28.08600001      -0.17654549       0.24928251       0.18965308      124        1       2.40000000       2.40000000
Si      21.57533929      20.72658330      11.14027139      28.08600001       0.31089324      -0.54442982       0.37322183      125        1       2.40000000       2.40000000
Si      16.17834088      20.20961315      13.08236013      28.08600001       1.14268108       1.02170891      -1.81195513      126        1       2.40000000       2.40000000
Si       2.93083592       0.00653868      10.22310747      28.08600001       0.53871675       0.52970970       1.53697498      127        1       2.40000000       2.40000000
Si      17.83480657      20.56965737      15.82322109      28.08600001       1.44146727      -0.22060645       0.65876734      128        1       2.40000000       2.40000000
Si       6.19359389      20.66816438       8.69177062      28.08600001       0.80399963       0.31181909      -1.15713638      129        1       2.40000000       2.40000000
Si       4.74088770      16.38537888       7.90590029      28.08600001       0.13455687      -0.83380041       0.09419720      130        1       2.40000000       2.40000000
Si      16.82627498       1.49341917      14.37814865      28.08600001      -1.62866666       0.98557049       0.26093362      131        1       2.40000000       2.40000000
Si      13.34474981      18.93267623       2.62638208      28.08600001       1.00721181      -0.00880016       0.39059674      132        1       2.40000000       2.40000000
Si       6.03036004      11.29730286      17.26123575      28.08600001       0.60533507      -0.05249291       0.72277958      133        1       2.40000000       2.40000000
Si      13.88225905      17.72274247      22.20500980      28.08600001       0.26930723      -0.23753753       0.64891767      134        1       2.40000000       2.40000000
Si       4.90069756      21.10364945       0.96181799      28.08600001      -0.47198931       2.24874563       0.34366697      135        1       2.40000000       2.40000000
Si      18.95246403      16.91760852      21.40046692      28.08600001       0.00680302      -0.09491600      -0.79148237      136        1       2.40000000       2.40000000
Si      20.31001944       2.46109505       7.88150875      28.08600001       0.71352352      -0.45555862      -0.68328093      137        1       2.40000000       2.40000000
Si      18.90853555      20.01813940       2.49463195      28.08600001      -0.38980658       0.73750724       0.34014045      138        1       2.40000000       2.40000000
Si       9.67552014       7.08582570      15.58388434      28.08600001      -0.66340037      -0.92009527       1.35922224      139        1       2.40000000       2.40000000
Si       4.35308624      11.77975327      19.78608078      28.08600001      -0.13670539       0.26883269      -0.18134789      140        1       2.40000000       2.40000000
Si      15.75883403      19.40684915       5.72972941      28.08600001      -0.72549390       0.41475391       0.46615553      141        1       2.40000000       2.40000000
Si       0.48559117       8.23261298      20.13250477      28.08600001      -0.88917362      -0.21910300       0.08423009      142        1       2.40000000       2.40000000
Si       9.79125388      18.46102769      17.99345252      28.08600001      -0.25721390      -0.50570105      -0.50571108      143        1       2.40000000       2.40000000
Si       0.77442711      12.03205971       8.40628423      28.08600001      -0.11518007       0.28349289       0.09680526      144        1       2.40000000       2.40000000
Si       5.81442396      22.58192831      16.91016472      28.08600001       0.60921993      -0.61454035      -0.31222599      145        1       2.40000000       2.40000000
Si      22.36082473      21.14116240       3.80879400      28.08600001       0.56970102       0.24999577       0.89989588      146        1       2.40000000       2.40000000
Si       2.11512175      17.52908406       0.02218177      28.08600001      -0.79816512       1.23954400       0.56247254      147        1       2.40000000       2.40000000
Si      17.38292429      12.44254698      19.74072815      28.08600001      -0.10440554      -0.45084964      -0.49204444      148        1       2.40000000       2.40000000
Si       2.51636691      10.20984417      12.60079871      28.08600001       0.50716231       0.48076640      -1.14744276      149        1       2.40000000       2.40000000
Si      13.40520606      12.77244050       2.92842060      28.08600001       0.22365452      -1.71009829       0.66518252      150        1       2.40000000       2.40000000
Si       9.04057611       6.32915972      10.77945259      28.08600001       1.83226725       0.15844854       0.22015538      151        1       2.40000000       2.40000000
Si       4.92585665      18.12305597       1.02939281      28.08600001      -0.34188378      -1.77815348       0.00317464      152        1       2.40000000       2.40000000
Si      12.72541569       7.79910059      21.55163429      28.08600001       1.34887380      -0.96843569       0.78404954      153        1       2.40000000       2.40000000
Si       9.52134695      14.41512693       5.67853029      28.08600001       2.39769827      -0.90816126       0.29513341      154        1       2.40000000       2.40000000
Si       0.79221928      12.86075825      11.39712674      28.08600001       0.09944813      -0.18075513      -0.66420185      155        1       2.40000000       2.40000000
Si       5.63786775      20.96405833      14.21243071      28.08600001       1.49451092       0.46258798      -0.28712933      156        1       2.40000000       2.40000000
Si       9.09557051      11.28478657      10.00886277      28.08600001      -0.28378716       0.35628620       0.68276235      157        1       2.40000000       2.40000000
Si      17.15058553      22.70848954       8.68032911      28.08600001      -1.24939746       0.52006727       0.73446215      158        1       2.40000000       2.40000000
Si       9.08779363      16.78102750      13.31126690      28.08600001      -0.98214165       0.77768321      -0.20700185      159        1       2.40000000       2.40000000
Si       1.30090005      20.86487516       8.93652760      28.08600001      -1.99383462      -1.17928076       0.25602844      160        1       2.40000000       2.40000000
Si       4.91565995       3.66521149       3.46810800      28.08600001      -0.29674864      -0.39859540      -0.91455910      161        1       2.40000000       2.40000000
Si       6.93829274      14.20928010       1.05675084      28.08600001       0.43612628       0.53322941      -0.29555802      162        1       2.40000000       2.40000000
Si       3.24790787       1.31304648       7.51526266      28.08600001      -0.90625240      -0.23596442      -0.03276841      163        1       2.40000000       2.40000000
Si      13.72794186      12.72740767      22.12297731      28.08600001      -1.04873943      -0.26247097       0.54466867      164        1       2.40000000       2.40000000
Si       8.44427513      13.18544549      18.17197351      28.08600001       0.16807164       1.04354691       0.91430508      165        1       2.40000000       2.40000000
Si       2.46611277      14.64418088       3.50129620      28.08600001       0.28946609      -1.72313363       0.74089405      166        1       2.40000000       2.40000000
Si      15.13202031       2.90728314      18.22540509      28.08600001       1.28468941       0.55717774       0.11555101      167        1       2.40000000       2.40000000
Si       3.65528667      23.01560298      21.89364753      28.08600001      -0.53809598      -1.14948069       1.16780810      168        1       2.40000000       2.40000000
Si      14.02391780       0.30714497       8.24112071      28.08600001      -0.68776569      -0.37937992       0.07116281      169        1       2.40000000       2.40000000
Si       6.71608335       5.93005555      14.93628434      28.08600001      -0.78232901      -0.69299995       1.71013180      170        1       2.40000000       2.40000000
Si       4.56790861       9.11521746       1.02475133      28.08600001       0.49078760      -0.13233278      -0.53775422      171        1       2.40000000       2.40000000
Si       5.76388403      15.53745495      15.87833631      28.08600001       0.16768817       0.28004025       1.13605879      172        1       2.40000000       2.40000000
Si       4.60691422       2.41836008      17.20842621      28.08600001      -1.13699789      -0.51704640      -0.40491577      173        1       2.40000000       2.40000000
Si      20.31405189      14.92872616       0.58562183      28.08600001       0.68769904       1.15692408      -0.90451794      174        1       2.40000000       2.40000000
Si       2.59994779       4.06201722       8.54107848      28.08600001      -1.02119365      -1.11884883       1.34161323      175        1       2.40000000       2.40000000
Si       6.28933516      17.87629807      14.00809133      28.08600001      -0.42090846       0.26219157       0.79733103      176        1       2.40000000       2.40000000
Si      20.01839261       2.68494470      10.95328636      28.08600001       0.87278507       0.48132532       0.61714462      177        1       2.40000000       2.40000000
Si      15.47311530      11.41071225       8.89740506      28.08600001       0.43662612       0.39123798      -0.30878655      178        1       2.40000000       2.40000000
Si       0.37919192       1.79217796       6.36676566      28.08600001       1.27793098       0.69588236       0.17055068      179        1       2.40000000       2.40000000
Si      16.96839598      15.42525407       9.27090040      28.08600001      -0.37116840       0.40702703       2.29721965      180        1       2.40000000       2.40000000
Si       7.56697218       4.81957746       2.28684517      28.08600001       0.24328655      -0.12316543       0.22392431      181        1       2.40000000       2.40000000
Si      15.67058966       2.74049261       4.22140527      28.08600001      -1.21617578      -0.05112526       1.27940746      182        1       2.40000000       2.40000000
Si      20.37655681       0.87614121      18.18378864      28.08600001      -0.56957593      -0.78805109      -1.82440051      183        1       2.40000000       2.40000000
Si       7.78363456      13.97787284      13.83116199      28.08600001       1.60082031      -0.29900163      -0.84811294      184        1       2.40000000       2.40000000
Si      20.16141623      23.02658045      12.39338240      28.08600001       0.40990688      -0.23605055      -1.41590233      185        1       2.40000000       2.40000000
Si       5.13404729       5.28111293      17.68725322      28.08600001       0.42430756       0.74021374       0.56491376      186        1       2.40000000       2.40000000
Si      19.57250737       9.33055021      13.20244148      28.08600001      -1.42380567      -0.19922396      -0.15585782      187        1       2.40000000       2.40000000
Si      19.64831484      22.80739212       3.40754565      28.08600001      -1.04598977       0.20207688      -0.03018572      188        1       2.40000000       2.40000000
Si       8.73293728       4.51209606      19.71966211      28.08600001       0.06688991      -0.12941521      -1.88993081      189        1       2.40000000       2.40000000
Si      12.27601286      15.27237456      10.42714539      28.08600001      -0.64019659       0.51934044       0.65333588      190        1       2.40000000       2.40000000
Si      21.64958696      11.45751115       3.58333822      28.08600001      -0.04037094      -0.57209680       0.22589378      191        1       2.40000000       2.40000000
Si      20.01073880      16.88583767      11.14215218      28.08600001      -0.96712914       0.35214496      -0.84265041      192        1       2.40000000       2.40000000
Si      22.19835105      16.13509872       2.97257249      28.08600001       0.12574490       0.69246225       1.82206078      193        1       2.40000000       2.40000000
Si       3.54136684      17.19765667      19.45432412      28.08600001      -1.92604654       0.18640667       1.16209041      194        1       2.40000000       2.40000000
Si      22.54074187       4.56097804      16.81456529      28.08600001      -0.35661562       0.19495741      -1.13439733      195        1       2.40000000       2.40000000
Si      18.43919929       7.37362795      11.26167254      28.08600001      -1.69491751      -0.67866215      -0.70836868      196        1       2.40000000       2.40000000
Si      17.77285121       1.29018902      22.10866541      28.08600001      -1.05109838       0.84084613       0.72052139      197        1       2.40000000       2.40000000
Si      20.57255411      18.77575416       8.92797415      28.08600001      -0.88149548       0.52291335      -0.70522080      198        1       2.40000000       2.40000000
Si      20.63700137      19.39200311      22.02154763      28.08600001       0.53044643      -1.06255553      -2.19344410      199        1       2.40000000       2.40000000
Si      10.86968704       1.83582784       2.80210690      28.08600001      -0.50959217       0.05752500      -0.13460421      200        1       2.40000000       2.40000000
Si       0.39474632      11.71950578       0.81371896      28.08600001       0.25105529      -0.02315956      -0.09673909      201        1       2.40000000       2.40000000
Si       8.97712619      19.28606930       7.95715566      28.08600001       1.56917012       0.74909603      -0.97994553      202        1       2.40000000       2.40000000
Si       2.45739371       1.11034605      19.21351857      28.08600001       1.75734985      -0.18019633      -0.93018399      203        1       2.40000000       2.40000000
Si       2.10865596       4.50345624       0.54824717      28.08600001       1.24913433      -1.26664924      -0.67055804      204        1       2.40000000       2.40000000
Si       7.24945406       2.10431182      20.93788196      28.08600001       0.07364636       0.38521429      -0.76026623      205        1       2.40000000       2.40000000
Si      22.08324048      17.26817446      18.02961114      28.08600001      -0.44974005      -0.32234542      -0.13165821      206        1       2.40000000       2.40000000
Si      12.54015597      23.00562115      10.73225806      28.08600001      -0.39376121       0.96260471      -0.62401148      207        1       2.40000000       2.40000000
Si       9.62085472      17.64772933       2.58657533      28.08600001       1.18535360       0.15468559      -2.11242229      208        1       2.40000000       2.40000000
Si      11.57699256       8.56950762       3.29657963      28.08600001      -2.22035232      -1.12495700       0.65625784      209        1       2.40000000       2.40000000
Si       9.72201012      21.95072489       6.86422400      28.08600001       0.46724060      -0.86421699       1.12114717      210        1       2.40000000       2.40000000
Si      10.12506795       4.14665878       9.06571685      28.08600001      -1.07577385      -0.08369462      -0.27423597      211        1       2.40000000       2.40000000
Si      17.09015272      18.16949352      10.81607970      28.08600001      -0.74698532      -0.71738099       1.05312215      212        1       2.40000000       2.40000000
Si       6.98943931       7.30252566       0.38196378      28.08600001      -0.85778588      -0.02305268      -0.69319329      213        1       2.40000000       2.40000000
Si      12.31515338      21.79652648      21.58498302      28.08600001       1.10051694       0.01368588      -1.00761604      214        1       2.40000000       2.40000000
Si      12.24843830       6.04983243       1.75973265      28.08600001       1.38772300       0.92639153       0.16856131      215        1       2.40000000       2.40000000
Si      13.08408212      10.82456814      18.26773791      28.08600001       1.33595809      -0.60718851       0.07159806      216        1       2.40000000       2.40000000
Si      12.25280532       2.04333295      13.19492338      28.08600001      -0.84278749       0.40867246      -1.44343195      217        1       2.40000000       2.40000000
Si      17.25973477       6.44007716      15.58540817      28.08600001       1.46529175       0.56708913      -0.26465530      218        1       2.40000000       2.40000000
Si       6.77655772       2.63306259       5.79319620      28.08600001      -0.21469697       1.45732569       0.57974999      219        1       2.40000000       2.40000000
Si      20.43004506      13.32811457      16.68892716      28.08600001       0.03664373      -0.94090497       0.14311141      220        1       2.40000000       2.40000000
Si      16.50501916      14.60247614      14.02241797      28.08600001       0.90673573       0.38965594       0.42048704      221        1       2.40000000       2.40000000
Si      20.17450647       1.01578241       0.47659736      28.08600001       1.15059786       2.05126205       0.43214064      222        1       2.40000000       2.40000000
Si      22.44537976       4.87824322       5.56402147      28.08600001       1.50002104       0.10490295      -0.47917455      223        1       2.40000000       2.40000000
Si       2.41881913       8.62179064       3.24768413      28.08600001       0.08116701      -2.07142817      -0.61527610      224        1       2.40000000       2.40000000
Si      16.65082564       8.06928655       3.63294768      28.08600001      -0.09286461      -1.41063499      -1.76994683      225        1       2.40000000       2.40000000
Si       2.68393209       9.81208882      21.58870807      28.08600001      -0.89274374       0.81050044      -0.44741381      226        1       2.40000000       2.40000000
Si      18.10060616       6.69227935      21.56002452      28.08600001      -1.18167441       0.31238208      -0.63970410      227        1       2.40000000       2.40000000
Si       1.79780421      14.42632276      21.83678200      28.08600001       0.03118199      -0.38936794       1.43302132      228        1       2.40000000       2.40000000
Si      19.74568414      18.28912552      16.28086793      28.08600001       0.89175787      -0.35166501       0.84079170      229        1       2.40000000       2.40000000
Si       0.52002588       8.88123546       8.41761354      28.08600001      -0.49309314      -0.52110296      -0.45274525      230        1       2.40000000       2.40000000
Si      15.69213840       7.29949402       8.09619062      28.08600001       1.23442060      -0.21100894       0.16495552      231        1       2.40000000       2.40000000
Si      21.83330694       8.27964753      15.09998284      28.08600001      -1.62776644       0.00058147      -0.44112731      232        1       2.40000000       2.40000000
Si      14.27981080      10.02260546       3.96680460      28.08600001       0.07436151      -0.74864412       0.89348360      233        1       2.40000000       2.40000000
Si      20.12155749       6.44203814      16.96544129      28.08600001      -0.24546719       0.36646565       0.91309361      234        1       2.40000000       2.40000000
Si      16.04103209      16.20349627       0.52845925      28.08600001      -1.67076264      -0.69734390       0.33037605      235        1       2.40000000       2.40000000
Si       0.59861614      14.73093402      16.33487232      28.08600001      -0.32634936       0.43383242      -0.78450013      236        1       2.40000000       2.40000000
Si      18.41722859      14.29583521      11.52904716      28.08600001      -0.33800744       0.59562252       0.24641603      237        1       2.40000000       2.40000000
Si      21.28905425      18.44675671      13.42782224      28.08600001       0.34279365       0.21248082      -0.97520255      238        1       2.40000000       2.40000000
Si       6.42639765      17.44886143      20.65992887      28.08600001       0.75529386      -0.98237453       0.47358180      239        1       2.40000000       2.40000000
Si      11.58135703      10.66201714      21.01948140      28.08600001       1.83009849       0.17126842       0.99705562      240        1       2.40000000       2.40000000
Si      16.40377465      18.22387474       2.94735370      28.08600001       0.14777116       0.55720868      -0.79498918      241        1       2.40000000       2.40000000
Si       6.74278715      13.69891569       4.27941951      28.08600001      -0.56312767      -0.35324146      -0.96961156      242        1       2.40000000       2.40000000
Si       1.68467572       1.06736329      12.78670635      28.08600001       0.80042514       1.77496509      -1.27527359      243        1       2.40000000       2.40000000
Si      13.06226001       4.95605661      13.35279424      28.08600001      -0.53740436       0.32730050      -0.32113689      244        1       2.40000000       2.40000000
Si      15.17046694      16.59996608      18.45474296      28.08600001       0.98685093       0.21099043      -0.20265377      245        1       2.40000000       2.40000000
Si      15.09625994       5.39856529       2.66303603      28.08600001       1.85413405       1.06052899      -0.54212603      246        1       2.40000000       2.40000000
Si       7.37111863      21.00710412       4.79798142      28.08600001      -1.35073716       0.41641756      -0.57270287      247        1       2.40000000       2.40000000
Si      20.01769075       8.24607791      19.64925433      28.08600001       0.22613781      -1.23994243      -0.96723909      248        1       2.40000000       2.40000000
Si      13.26423641      17.53696459       5.55493742      28.08600001      -1.32369681      -0.84794313      -0.44290441      249        1       2.40000000       2.40000000
Si       6.72704441       9.67154554       6.33310453      28.08600001      -0.42636480      -0.41190419       1.40270599      250        1       2.40000000       2.40000000
Si      12.17979557      16.57279408      18.20831353      28.08600001       1.76906706      -0.04871986      -1.09789292      251        1       2.40000000       2.40000000
Si      21.64579023      20.50041242       6.77489891      28.08600001      -0.20184860      -0.66129045      -1.31175409      252        1       2.40000000       2.40000000
Si      16.11857313      10.72888429      21.75224594      28.08600001      -0.99794267       0.31539975      -0.29362551      253        1       2.40000000       2.40000000
Li       1.76736243      17.45712729       7.72848609       6.94100000       0.32594274      -1.01040237      -0.32564572      254        3       0.60000000       0.60000000
Li      12.13645331      21.04836671       8.28201754       6.94100000       0.42041813      -0.15713142       0.17204369      255        3       0.60000000       0.60000000
Li       0.29545070      22.25500004       0.07551777       6.94100000      -0.13636441       0.50183538       0.15713437      256        3       0.60000000       0.60000000
Li      15.11994828       8.07096190       0.65900524       6.94100000      -0.38531484       0.27615343       0.67255882      257        3       0.60000000       0.60000000
Li      20.43746514      11.62106318      21.61074334       6.94100000       0.81938450      -0.52181691      -0.34875438      258        3       0.60000000       0.60000000
Li      22.20831117      16.40676514      21.31112305       6.94100000      -0.66242613       0.03504473      -0.06284839      259        3       0.60000000       0.60000000
Li       8.10849346      19.43424566      15.70001042       6.94100000      -0.43239998       0.40566556       1.01816682      260        3       0.60000000       0.60000000
Li      19.43251633       4.53038178      13.44193030       6.94100000      -0.27303428      -0.32349245       0.42108948      261        3       0.60000000       0.60000000
Li      14.03983634       6.12329314       6.39107818       6.94100000       0.27517182      -0.18677445      -0.26851889      262        3       0.60000000       0.60000000
Li      21.88229946      14.46385723      19.74552709       6.94100000       0.63711413      -0.26234826      -0.27220147      263        3       0.60000000       0.60000000
Li      15.59205698      14.78578700      20.82578177       6.94100000      -0.79968721       0.76688094      -0.10433411      264        3       0.60000000       0.60000000
Li       9.89974245       6.45754059       3.64450079       6.94100000       0.25162184       0.34828036       0.01567618      265        3       0.60000000       0.60000000
Li      17.44073972      21.71589236      21.60041776       6.94100000      -0.10797420       0.77505350      -0.25432571      266        3       0.60000000       0.60000000
Li      17.75480390       2.42352750       8.44676062       6.94100000       0.42599288      -0.76345656      -0.71143116      267        3       0.60000000       0.60000000
Li      20.91014155       9.44877593      22.34454013       6.94100000      -0.07442716       0.24428773      -0.25232223      268        3       0.60000000       0.60000000
Li       3.92939564      15.05763489       1.01875628       6.94100000      -0.30716746       0.04174864      -0.31133139      269        3       0.60000000       0.60000000
Li      21.00388626      18.37821715       4.46254765       6.94100000      -0.31824176       0.33774604       0.24290956      270        3       0.60000000       0.60000000
Li       7.70935788       7.21101056       4.59399640       6.94100000      -0.03267828       0.52036870      -0.65082218      271        3       0.60000000       0.60000000
Li      15.29561171       3.87506423       8.64304658       6.94100000      -0.48273499      -0.51989876      -0.37120007      272        3       0.60000000       0.60000000
Li       7.91950350      16.77866847       7.88082169       6.94100000      -0.44139142      -0.42727134      -0.27962489      273        3       0.60000000       0.60000000
Li       3.52385800      21.81263426       3.89259598       6.94100000       0.20769218      -0.44592425       0.36385355      274        3       0.60000000       0.60000000
Li       5.01500790      14.32673374      21.35958697       6.94100000       0.23622020       0.58414494      -0.13698676      275        3       0.60000000       0.60000000
Li      15.89042270      20.74851862       1.39298640       6.94100000       0.54139261      -0.16827786       0.58641584      276        3       0.60000000       0.60000000
Li       3.23217421      12.61358871       1.04323380       6.94100000       0.07184064      -0.29517225      -0.11325223      277        3       0.60000000       0.60000000
Li       3.90303641       0.35745843       2.63476721       6.94100000      -0.00752131      -0.61959821      -0.46445263      278        3       0.60000000       0.60000000
Li      19.05638718      22.51337090       6.51118434       6.94100000      -0.81609876       0.47097125      -0.10727588      279        3       0.60000000       0.60000000
Li      17.92788064      13.37749168      22.34089471       6.94100000       0.00679468      -0.53580916      -0.21393583      280        3       0.60000000       0.60000000
Li       2.32499537      20.58096085       1.03689529       6.94100000      -0.42286069      -0.11918005      -0.21175491      281        3       0.60000000       0.60000000
O       15.56101095       6.86070152       3.12576377      15.99940000      -0.22643403       0.54159214       0.11381181      282        2      -1.20000000      -1.20000000
O       14.36567687      18.57376333       6.14161496      15.99940000       0.61320988      -0.30286554       0.60561700      283        2      -1.20000000      -1.20000000
O       12.01438699       1.34349390       5.92568015      15.99940000       0.22630865      -0.33612541      -0.58472516      284        2      -1.20000000      -1.20000000
O        2.72485498       0.92769806       3.72643056      15.99940000       0.09986327      -0.57598124      -0.37743282      285        2      -1.20000000      -1.20000000
O       13.77758439      13.97327412       3.96411728      15.99940000      -0.29601159      -0.06330150      -1.10337582      286        2      -1.20000000      -1.20000000
O       12.30099720       9.30089361      21.60642015      15.99940000      -0.42275286       0.91413270      -1.07988024      287        2      -1.20000000      -1.20000000
O       22.07077848       4.10553369      20.39528372      15.99940000       1.50809978      -0.39878148      -0.36831130      288        2      -1.20000000      -1.20000000
O       14.21413585      13.76483542       6.67797289      15.99940000      -0.43717061       0.85875734      -0.28281412      289        2      -1.20000000      -1.20000000
O       18.12454297      15.76870799       8.12943655      15.99940000      -0.25896532      -0.39770628      -0.05071744      290        2      -1.20000000      -1.20000000
O        2.89840592      12.67126653      15.29047033      15.99940000      -0.10140517      -0.84750175      -0.56246240      291        2      -1.20000000      -1.20000000
O        0.50128498       0.98179871       2.28511122      15.99940000      -1.06430960       0.13552639      -0.42883958      292        2      -1.20000000      -1.20000000
O       21.41956514       8.53350234      20.53065998      15.99940000      -0.40994778      -0.27375752      -0.13004185      293        2      -1.20000000      -1.20000000
O       10.74109898      10.95278508       6.55303620      15.99940000      -0.81109868       1.46462185       1.13771515      294        2      -1.20000000      -1.20000000
O       21.51809153       5.80914031       0.11758101      15.99940000      -0.39407251       0.48794495       0.61885209      295        2      -1.20000000      -1.20000000
O        9.49705927       0.22184598       7.70325038      15.99940000       1.53923686       0.51899702      -1.45483384      296        2      -1.20000000      -1.20000000
O       11.03590773      19.21616691      10.69935153      15.99940000       0.18645089      -0.33882045      -0.33437807      297        2      -1.20000000      -1.20000000
O        3.54544555       4.49220049       9.85663248      15.99940000      -0.77446980       0.00176528      -0.00205168      298        2      -1.20000000      -1.20000000
O       19.84023415      19.16278829       3.45611446      15.99940000      -1.06954835       1.02243502       0.82257845      299        2      -1.20000000      -1.20000000
O       16.71227341      15.43223641      15.31312515      15.99940000       0.99511427      -0.43443218      -1.07020038      300        2      -1.20000000      -1.20000000
O       13.30942794      20.39672520       3.31464919      15.99940000      -1.18841440       0.68457821       0.81359157      301        2      -1.20000000      -1.20000000
O        7.35735415      19.66291744       8.19627478      15.99940000      -0.14491072       0.09572833       0.56658066      302        2      -1.20000000      -1.20000000
O       13.42181981       1.79138900      14.39470422      15.99940000       0.13322809      -0.87492260      -0.85217052      303        2      -1.20000000      -1.20000000
O        2.60936918      22.28060545      15.68095499      15.99940000       0.92441957       0.66860544      -1.60563064      304        2      -1.20000000      -1.20000000
O       10.32520047      13.66496170       6.85300749      15.99940000       0.43146827       0.38180561       0.32762694      305        2      -1.20000000      -1.20000000
O        6.18245122      19.34516731      14.73312398      15.99940000      -0.12054228      -0.81266467       0.47754168      306        2      -1.20000000      -1.20000000
O       11.28793972      21.14217396      15.07728897      15.99940000       0.37213618      -0.58643550       0.14056782      307        2      -1.20000000      -1.20000000
O        6.66419964      12.12509134       4.04792273      15.99940000      -1.08725121       0.61154396      -0.35562011      308        2      -1.20000000      -1.20000000
O       11.44562557      20.52828981      22.00416061      15.99940000      -0.06814342       0.15643588       0.00518077      309        2      -1.20000000      -1.20000000
O        8.53692092       7.11626586       9.30643488      15.99940000      -0.28722069      -0.85654050      -0.54120666      310        2      -1.20000000      -1.20000000
O       17.34122370      14.24384767      10.26588072      15.99940000      -0.08441098       0.02809718       0.92476801      311        2      -1.20000000      -1.20000000
O       14.52188707      16.67947916       0.44516526      15.99940000       0.21104693      -0.28958348      -0.22977820      312        2      -1.20000000      -1.20000000
O       11.02285106       4.94992529       8.14063908      15.99940000       0.02011203       0.00453788      -0.11200506      313        2      -1.20000000      -1.20000000
O       17.07891151       0.98045186      20.67949197      15.99940000      -0.04337763      -1.17133486      -0.30084311      314        2      -1.20000000      -1.20000000
O        5.59278020       2.86283720       4.69984573      15.99940000       0.61896191       0.60711138       0.24256874      315        2      -1.20000000      -1.20000000
O       10.96550505       8.87406095       4.86155019      15.99940000       0.32485489      -0.04569872       1.07890985      316        2      -1.20000000      -1.20000000
O        8.46021272       1.70828360      21.93227017      15.99940000      -0.85867553       0.30400225      -0.16182850      317        2      -1.20000000      -1.20000000
O        1.80611430       4.89876334      21.57363425      15.99940000       0.37016553       0.00115778      -0.11800698      318        2      -1.20000000      -1.20000000
O        8.35196825      21.43484676       6.03887744      15.99940000      -0.34080163      -0.20394942      -0.40822242      319        2      -1.20000000      -1.20000000
O       14.70183655      12.80741483       9.20427675      15.99940000      -0.55530684       0.00220198      -0.79210003      320        2      -1.20000000      -1.20000000
O        0.71093612       3.75767077      18.07493840      15.99940000       0.37676362      -0.38566809       0.38329492      321        2      -1.20000000      -1.20000000
O        6.01713632      16.90731546       4.63109414      15.99940000       0.38456004       0.41911464      -0.93240193      322        2      -1.20000000      -1.20000000
O        8.13700433      15.15205221       0.49177617      15.99940000      -0.14284286       0.41908908       0.34890416      323        2      -1.20000000      -1.20000000
O       22.09346190       7.22246511      11.84023363      15.99940000       0.05029599      -0.78087373       0.28717777      324        2      -1.20000000      -1.20000000
O        6.45354596       3.69620031       7.03262088      15.99940000       0.00761140      -0.32931748      -0.80176858      325        2      -1.20000000      -1.20000000
O       13.94821839      12.24917114      15.36559811      15.99940000       0.05944448      -0.13720934       0.12793774      326        2      -1.20000000      -1.20000000
O        8.43460018       6.08947063      15.19998333      15.99940000       1.00551786       1.09463552      -0.95003066      327        2      -1.20000000      -1.20000000
O       16.50268504      18.40422473       4.55292714      15.99940000       0.01988976       0.20884257       0.10034655      328        2      -1.20000000      -1.20000000
O        0.44698159       6.64028758      20.20456853      15.99940000      -0.21546235      -0.42656962      -0.07091818      329        2      -1.20000000      -1.20000000
O       15.78914229       6.08147309      16.22821472      15.99940000      -0.25603363      -0.30581074       0.32162944      330        2      -1.20000000      -1.20000000
O       10.48369473      19.20304365      16.73193250      15.99940000       0.60285719       0.03274413      -0.16821783      331        2      -1.20000000      -1.20000000
O       16.89865651       0.33721051       0.83234786      15.99940000       0.34246260      -1.22465631      -0.16780661      332        2      -1.20000000      -1.20000000
O       15.79532386      12.71760735      16.86815266      15.99940000       0.14319688       0.08266296       1.19414816      333        2      -1.20000000      -1.20000000
O       22.26802208      20.21590969       5.14062654      15.99940000       0.23656800       0.17621481      -0.31442196      334        2      -1.20000000      -1.20000000
O        3.48246885       4.43955441       3.81945229      15.99940000      -0.41053317       0.69350994       0.45548620      335        2      -1.20000000      -1.20000000
O       17.43186846      12.38896109       5.42328285      15.99940000      -0.12650071       0.32591595      -0.31608903      336        2      -1.20000000      -1.20000000
O        3.72422858      17.45869080       8.70151506      15.99940000      -0.81487579       0.17125468       0.37626266      337        2      -1.20000000      -1.20000000
O       17.59494095       5.13434398      21.43558529      15.99940000       0.44218772      -0.27999032       0.95863071      338        2      -1.20000000      -1.20000000
O       20.49184885       7.30107566      18.33167247      15.99940000       0.39957448       0.26499729      -0.15990491      339        2      -1.20000000      -1.20000000
O        0.96072659      12.83893978       9.74997015      15.99940000       0.98983194      -1.19685721      -0.50454897      340        2      -1.20000000      -1.20000000
O       21.68635064       3.38353369       2.82279138      15.99940000       0.30572068       0.62118671      -0.20767010      341        2      -1.20000000      -1.20000000
O        1.14724075       8.94318346      18.72122807      15.99940000      -1.30612936       0.88396750       0.79996464      342        2      -1.20000000      -1.20000000
O        7.80052450      17.43801284      14.01335439      15.99940000      -0.60076779       1.25281607       0.47387868      343        2      -1.20000000      -1.20000000
O        7.39056490       5.83427820       0.94631113      15.99940000       0.25370148      -1.27000028       0.40038489      344        2      -1.20000000      -1.20000000
O        3.47121806       9.22388034       2.12388210      15.99940000      -0.80573331      -0.36477671      -0.40965988      345        2      -1.20000000      -1.20000000
O       11.82429831      12.36312991       3.14614267      15.99940000       0.22000830       0.54690187      -0.08284883      346        2      -1.20000000      -1.20000000
O        7.19986644      10.18243132      16.92201497      15.99940000      -1.01039707      -0.21703366      -0.33971399      347        2      -1.20000000      -1.20000000
O        5.01102119      11.32708302      16.01191933      15.99940000       0.44996745       0.51399238      -0.06338082      348        2      -1.20000000      -1.20000000
O        1.83640734      22.52642567      13.11054650      15.99940000       0.79412568      -0.56717613      -0.02389006      349        2      -1.20000000      -1.20000000
O        8.62397271      17.42685233      17.49623512      15.99940000       0.54579203      -0.79610423       0.01890630      350        2      -1.20000000      -1.20000000
O       14.40102483      10.55856995       8.11654104      15.99940000       0.39615127       0.34395147       0.60503453      351        2      -1.20000000      -1.20000000
O        8.63708583       5.03120611       3.47766945      15.99940000      -0.96249055       0.15074179      -0.17133418      352        2      -1.20000000      -1.20000000
O        1.20859758      22.10343106       3.97684250      15.99940000      -1.25846744       0.41889904       0.25074054      353        2      -1.20000000      -1.20000000
O        9.51278527      16.03044517       5.99205514      15.99940000       0.26898579      -0.07739307       0.09179468      354        2      -1.20000000      -1.20000000
O        3.53542454      14.36041537      13.37624075      15.99940000       1.00572368      -0.04481622       0.77748913      355        2      -1.20000000      -1.20000000
O        9.28290722      18.53230940       6.57170785      15.99940000       0.64985794       0.01537808       1.22537743      356        2      -1.20000000      -1.20000000
O        8.53237553      14.78345348      18.23278526      15.99940000       0.45895833       0.21788060       0.10940156      357        2      -1.20000000      -1.20000000
O        9.35045322      12.05093634       8.60139589      15.99940000      -0.23244879      -0.56960114       0.30465947      358        2      -1.20000000      -1.20000000
O       14.98674951       4.07143450      21.79168203      15.99940000      -0.25860352      -0.30370551      -1.48787408      359        2      -1.20000000      -1.20000000
O        0.76281346      13.36034066       0.42741240      15.99940000       0.56241819       0.00825961       0.70649071      360        2      -1.20000000      -1.20000000
O       16.57462489      20.69386695      16.79806575      15.99940000       0.00630031       0.40118462      -0.80305274      361        2      -1.20000000      -1.20000000
O       21.10549950      15.46080159       1.93239764      15.99940000      -0.76946194      -0.32648518      -0.41966915      362        2      -1.20000000      -1.20000000
O       12.57764136      15.46305940      14.00076157      15.99940000      -0.96974271       0.65916836      -0.15188306      363        2      -1.20000000      -1.20000000
O       12.53075238       4.38375519      20.68143402      15.99940000       1.29650559      -0.57289516      -0.41152096      364        2      -1.20000000      -1.20000000
O        3.49479076      15.85949524       3.97596611      15.99940000      -0.16618896      -0.10929399      -0.15868691      365        2      -1.20000000      -1.20000000
O       21.44466284      18.64019354       0.34881356      15.99940000       0.84744078       0.40496929      -0.17574122      366        2      -1.20000000      -1.20000000
O        2.95878906       5.87333400      14.89450234      15.99940000      -0.52256241       0.39549972      -0.21442147      367        2      -1.20000000      -1.20000000
O        3.98160762      20.93831746      13.99306750      15.99940000      -0.53538384      -0.41199453      -0.56573773      368        2      -1.20000000      -1.20000000
O        0.38650043       1.87995279      13.22439815      15.99940000       0.50203973       0.43707783       0.07838095      369        2      -1.20000000      -1.20000000
O        6.92756985      18.94962840      20.19588289      15.99940000      -0.68973274       0.13508155       0.87954944      370        2      -1.20000000      -1.20000000
O        5.02573244      16.97718952      20.07512282      15.99940000      -0.22673548       0.19413964       0.00076891      371        2      -1.20000000      -1.20000000
O        2.22541723       6.65270802      12.48206808      15.99940000       0.87860196       0.23677815       0.78821981      372        2      -1.20000000      -1.20000000
O       20.71503722       7.29955103      15.74633762      15.99940000      -1.22439067       0.50065018       1.36818263      373        2      -1.20000000      -1.20000000
O        8.75142817       1.16339586      10.32026771      15.99940000       0.62613930      -0.26335146       0.22588370      374        2      -1.20000000      -1.20000000
O       13.82308928       7.77733771      20.41275220      15.99940000      -0.02262579       0.26427130      -0.67030846      375        2      -1.20000000      -1.20000000
O       18.51709863      22.14087462      15.74574270      15.99940000      -0.03503135       0.35392665       0.32585446      376        2      -1.20000000      -1.20000000
O       10.37751369      16.84489823      14.33229223      15.99940000       0.40914592       0.20329832       0.19910444      377        2      -1.20000000      -1.20000000
O       10.05310933       1.88978642      16.45578428      15.99940000       0.20698826      -0.31046001      -0.81345059      378        2      -1.20000000      -1.20000000
O       22.51486811      16.14905089      16.83395740      15.99940000       0.37421292       0.23236916       0.79671106      379        2      -1.20000000      -1.20000000
O       17.56572826       8.78021968       2.51610746      15.99940000      -0.64782277      -1.05698577      -0.13755552      380        2      -1.20000000      -1.20000000
O        3.69099557       9.65033948      11.70313183      15.99940000       0.39479604       1.03472384      -0.58819127      381        2      -1.20000000      -1.20000000
O       21.55638366      14.64644532      21.71712297      15.99940000      -0.65034158      -0.84472972      -0.09453788      382        2      -1.20000000      -1.20000000
O        6.16282918      22.05898082       7.89703355      15.99940000      -0.39409559      -0.13149063       0.16685594      383        2      -1.20000000      -1.20000000
O       20.37406575       0.60118655      16.63214369      15.99940000      -0.16134266       0.65655668       0.01338513      384        2      -1.20000000      -1.20000000
O       15.63993297      16.18363035      19.87683149      15.99940000       0.93881185       0.22370673      -0.36262230      385        2      -1.20000000      -1.20000000
O        5.10329331       6.25174067      11.43104862      15.99940000      -0.44458517       0.28678466       0.22474029      386        2      -1.20000000      -1.20000000
O       22.00077222       8.40582305       9.48237565      15.99940000      -0.73728967       0.85982947       0.60327924      387        2      -1.20000000      -1.20000000
O       18.47111490       9.76917465      16.70107406      15.99940000       0.34052873      -0.11065536      -0.46566491      388        2      -1.20000000      -1.20000000
O       20.95107204       4.72057577       4.81419980      15.99940000      -0.08458115      -0.31625922      -0.75277165      389        2      -1.20000000      -1.20000000
O       14.31332118      11.45865515       3.18659663      15.99940000       0.20045035      -0.79176698      -0.64027903      390        2      -1.20000000      -1.20000000
O       12.73608687       3.83598627       6.54193140      15.99940000       0.25634860      -0.38130786      -0.30853903      391        2      -1.20000000      -1.20000000
O        8.31955049       8.27045672       0.78917046      15.99940000      -0.30921986       0.92321756       0.55680671      392        2      -1.20000000      -1.20000000
O        2.17803465      19.52337943       8.80188835      15.99940000      -0.21833403       0.15677378      -0.82825613      393        2      -1.20000000      -1.20000000
O       19.06658553      18.86154151       8.23065125      15.99940000      -0.31337138       0.17966105      -0.22011188      394        2      -1.20000000      -1.20000000
O       19.79405175       1.45900818      11.92636699      15.99940000      -0.50056040       0.77468355       0.43819472      395        2      -1.20000000      -1.20000000
O        4.05501356      12.20337628       8.86522507      15.99940000      -1.25281484      -0.59071578      -0.35096229      396        2      -1.20000000      -1.20000000
O       13.62250805      12.43704326      18.32092027      15.99940000       0.48961762      -0.94508244      -0.53281373      397        2      -1.20000000      -1.20000000
O        7.02438533       7.33604931      21.19106097      15.99940000      -0.28511688       0.57560807       0.56519186      398        2      -1.20000000      -1.20000000
O       18.35403011       1.37745710      14.82277154      15.99940000       0.56583084      -0.48230477      -0.19568411      399        2      -1.20000000      -1.20000000
O        0.37240532       7.55348603      14.22529801      15.99940000       0.35751849       0.07287713      -0.83481846      400        2      -1.20000000      -1.20000000
O        4.99448983      22.03888203      22.13326241      15.99940000      -0.17331023       0.71004061      -0.86419856      401        2      -1.20000000      -1.20000000
O        5.94566346       5.94676602      16.39808948      15.99940000      -0.38112825       0.26941952       0.30216252      402        2      -1.20000000      -1.20000000
O        4.03147921       8.98935996      22.09186432      15.99940000      -1.18695338       0.39312744      -0.25319352      403        2      -1.20000000      -1.20000000
O       19.07554684       3.20061298       3.86843556      15.99940000      -1.21668036      -0.16480056      -0.66072807      404        2      -1.20000000      -1.20000000
O       12.87390231      16.77312035      21.37545824      15.99940000       0.68180967       0.62751452       0.49831725      405        2      -1.20000000      -1.20000000
O       14.30194761       2.36071847      16.89495020      15.99940000       0.40187557      -1.36973869       0.94588905      406        2      -1.20000000      -1.20000000
O        7.01409544      22.18243259      17.89182675      15.99940000      -0.29802079       0.60189701      -0.01409511      407        2      -1.20000000      -1.20000000
O        0.43574515       3.50164315       6.18792690      15.99940000      -0.40954235       0.02063934      -0.55312816      408        2      -1.20000000      -1.20000000
O       14.38878031       1.09003766       1.01402301      15.99940000      -0.69651265      -0.59517101       0.83114351      409        2      -1.20000000      -1.20000000
O        7.97488492      21.47280782      20.29153627      15.99940000      -0.42913362       0.87140242      -0.64565031      410        2      -1.20000000      -1.20000000
O        1.89492856       7.95840249       8.55661281      15.99940000      -0.27520993       0.10443407       0.03265901      411        2      -1.20000000      -1.20000000
O       16.54308996      16.74185900      10.23051542      15.99940000      -0.40910558      -0.14787260       0.28722156      412        2      -1.20000000      -1.20000000
O       21.86464602      13.75915476      15.95715630      15.99940000       0.04753591      -1.30271854       0.19992346      413        2      -1.20000000      -1.20000000
O        8.32409989       2.99687352       5.19008326      15.99940000       0.09161300       0.87263284      -0.90027140      414        2      -1.20000000      -1.20000000
O       15.58189630       4.31100658       3.84763927      15.99940000       0.55938473      -0.22413971      -1.32639614      415        2      -1.20000000      -1.20000000
O       18.39898985       9.94015118      14.11658994      15.99940000       0.61084590      -0.16914284      -0.19041769      416        2      -1.20000000      -1.20000000
O       17.66571121       7.64165448       4.83163233      15.99940000       0.83153547      -0.14115735      -0.34519547      417        2      -1.20000000      -1.20000000
O        6.12103867       4.79027716       3.15755056      15.99940000       0.07220212       0.89164869      -0.82975745      418        2      -1.20000000      -1.20000000
O        9.20381409      19.61829944      18.98049505      15.99940000       0.59431279       0.45227157      -0.46568927      419        2      -1.20000000      -1.20000000
O       10.24248733       4.92484485       5.67110758      15.99940000       0.63417348      -1.52247996      -0.02071390      420        2      -1.20000000      -1.20000000
O       12.37225003      19.31906355      12.88164662      15.99940000       1.15700272       0.22444331       0.28793180      421        2      -1.20000000      -1.20000000
O       10.12826852      17.84527434       4.13596364      15.99940000       0.48162068      -0.13846251       0.18761866      422        2      -1.20000000      -1.20000000
O        3.60698249       5.68239134      17.42747141      15.99940000       0.32620180      -0.86533286       0.25253975      423        2      -1.20000000      -1.20000000
O       13.49656808       5.22634275       2.39612967      15.99940000       0.22083475       0.36926780      -0.29367040      424        2      -1.20000000      -1.20000000
O       19.81841439      13.92769836       8.02953136      15.99940000      -1.63295842      -0.08169631      -0.06489431      425        2      -1.20000000      -1.20000000
O       14.68152656      14.94085373      17.88013320      15.99940000      -0.90473650      -0.32235414       0.30961375      426        2      -1.20000000      -1.20000000
O       20.91025258       9.27097671      14.11268913      15.99940000      -0.04377009       0.51329822       0.34181005      427        2      -1.20000000      -1.20000000
O       13.31908793      15.89220150      11.56232044      15.99940000       0.11704385       0.65661357       0.11903288      428        2      -1.20000000      -1.20000000
O       11.95632718       8.79832416      12.28232819      15.99940000      -0.70652716      -0.08365095       0.33210102      429        2      -1.20000000      -1.20000000
O       18.71935573      14.70423250       5.70000703      15.99940000       0.60121071      -1.52051553       0.32907646      430        2      -1.20000000      -1.20000000
O       16.28682802      21.55585047      12.26367180      15.99940000      -0.68108018       0.33566666      -0.32095371      431        2      -1.20000000      -1.20000000
O       10.44958942       9.01400313       2.28257572      15.99940000       0.81566367       0.66806372      -0.59404575      432        2      -1.20000000      -1.20000000
O       19.71667179       9.66795421      19.09382628      15.99940000      -0.44253709       0.36613728      -0.57226112      433        2      -1.20000000      -1.20000000
O       19.35158538       2.78266474       6.58828170      15.99940000      -0.33163055      -0.50810547      -0.81907873      434        2      -1.20000000      -1.20000000
O        6.17509250      21.45669669      12.76241304      15.99940000      -0.29895968      -0.47048285      -0.59508247      435        2      -1.20000000      -1.20000000
O        0.44113223      20.59660030      10.36204345      15.99940000      -0.15247821      -0.07026015      -0.14233022      436        2      -1.20000000      -1.20000000
O       17.39700056       8.56638560      11.00428232      15.99940000       0.68937439       0.14483013       1.21060168      437        2      -1.20000000      -1.20000000
O        2.53289945      10.46551742      16.80397014      15.99940000      -0.36953836       0.04773664       0.26988327      438        2      -1.20000000      -1.20000000
O       19.26088680      11.66328607       7.10433765      15.99940000       0.36284461      -0.15701035       0.55558035      439        2      -1.20000000      -1.20000000
O        5.59412321      14.74791112       0.70118300      15.99940000      -0.08614358       0.06603499      -0.28832413      440        2      -1.20000000      -1.20000000
O        9.98334979       7.26128750      11.64488131      15.99940000      -0.82348332       1.07991846       0.15490194      441        2      -1.20000000      -1.20000000
O        2.79580138      17.76430264      20.82707074      15.99940000      -1.02691263      -0.25713963       1.21062195      442        2      -1.20000000      -1.20000000
O       15.96900741      13.16031714      19.40894505      15.99940000       1.01379780       1.05729707       0.42934922      443        2      -1.20000000      -1.20000000
O       18.50877393       6.26024948      16.65104107      15.99940000      -0.15215019      -0.39922154      -0.41951348      444        2      -1.20000000      -1.20000000
O       19.07447013      12.91375132      11.73111789      15.99940000      -0.78474800      -0.16495522       0.55253131      445        2      -1.20000000      -1.20000000
O       11.93425164      16.33375813      16.62000459      15.99940000       0.15224669       0.23551508       0.09611121      446        2      -1.20000000      -1.20000000
O        5.15526687      11.09290685      18.66086853      15.99940000       0.68821899       0.54071902       0.10174731      447        2      -1.20000000      -1.20000000
O        7.25693896       8.64991837       7.51917397      15.99940000       0.77622599       0.90106493       0.29307557      448        2      -1.20000000      -1.20000000
O        9.82351209      19.03750740       1.67249776      15.99940000       0.81866356      -0.38485765       0.15659273      449        2      -1.20000000      -1.20000000
O       19.25722257      16.09720804      19.98070723      15.99940000      -0.00509303       0.18934533      -0.93597305      450        2      -1.20000000      -1.20000000
O       13.12609764      14.90931861       9.06021346      15.99940000       0.27330819      -1.12282187      -0.98434087      451        2      -1.20000000      -1.20000000
O       11.34165103      22.88060071      20.77209382      15.99940000      -0.87850022       0.62074990       0.20976277      452        2      -1.20000000      -1.20000000
O       10.57586161       2.53412197       9.15701843      15.99940000       0.40369745      -0.38813608       0.11303912      453        2      -1.20000000      -1.20000000
O       21.08631385      22.21904632       3.72987063      15.99940000      -0.92732866       0.00574451       0.00500212      454        2      -1.20000000      -1.20000000
O       18.65640654       9.83247402       0.26503542      15.99940000       1.01131051       0.79433152      -1.16777653      455        2      -1.20000000      -1.20000000
O        9.30385170      11.81517358       3.80367750      15.99940000      -0.27414570       0.60844729       0.35583135      456        2      -1.20000000      -1.20000000
O       10.50145523       3.16624423       3.67605663      15.99940000      -0.57874463       0.88972517      -0.77659221      457        2      -1.20000000      -1.20000000
O       19.74395263       7.77943361       6.63402051      15.99940000      -0.25227681      -1.08712608      -0.48695539      458        2      -1.20000000      -1.20000000
O       11.31715157      12.17240879      15.03531121      15.99940000      -0.43127254       0.16302544       0.30548360      459        2      -1.20000000      -1.20000000
O        0.26800958      11.64143815       2.41774744      15.99940000       1.63550316       0.32725068       1.64942885      460        2      -1.20000000      -1.20000000
O       18.22790832      11.39166241       2.24436433      15.99940000       0.52940021      -0.60829228       0.46002430      461        2      -1.20000000      -1.20000000
O        7.28034678       0.96492301      19.75726028      15.99940000       0.28950650      -0.31685943       0.35998095      462        2      -1.20000000      -1.20000000
O       15.69270340      15.08263133       8.43489607      15.99940000      -0.76475141      -0.09653330      -1.51792230      463        2      -1.20000000      -1.20000000
O        1.00984307       5.42313814       4.37253764      15.99940000       0.23534496       0.89057662      -0.35775117      464        2      -1.20000000      -1.20000000
O        1.09434227      15.40250226       2.90981905      15.99940000       0.16495053       1.50102007      -1.01026070      465        2      -1.20000000      -1.20000000
O        6.51405777      21.11705846       1.35614508      15.99940000      -0.32278723      -0.29407342       0.04683014      466        2      -1.20000000      -1.20000000
O       19.44846551      13.57407003       1.01301005      15.99940000       0.56378754       0.01592663       0.02400314      467        2      -1.20000000      -1.20000000
O        5.76357143      11.23834065      11.56333940      15.99940000      -0.57017697      -0.12251367       0.08255829      468        2      -1.20000000      -1.20000000
O       11.04649568       0.06509555       9.85607926      15.99940000      -0.46016169       0.07540117       0.75125543      469        2      -1.20000000      -1.20000000
O        2.37683343      21.99666595       9.35558231      15.99940000      -0.79277095      -0.71155103      -0.65641178      470        2      -1.20000000      -1.20000000
O       16.75536111      11.71323155       7.83535580      15.99940000       0.52482857       0.27945158      -1.02694760      471        2      -1.20000000      -1.20000000
O        9.96506012      13.66068010       1.75156773      15.99940000      -0.05892782      -0.48317866       0.04054351      472        2      -1.20000000      -1.20000000
O       16.47874687       1.99046084      18.23482699      15.99940000       1.31911973      -0.82714297       0.22917627      473        2      -1.20000000      -1.20000000
O       22.24077516      14.24723717       5.89009966      15.99940000       0.29484246       0.38334079      -1.52317100      474        2      -1.20000000      -1.20000000
O        3.30473257      16.39902583      11.74278396      15.99940000      -0.65445928      -0.14407368       0.56347762      475        2      -1.20000000      -1.20000000
O       22.12812930      16.50687515      19.39178644      15.99940000       0.12713294      -0.60742455       0.54365052      476        2      -1.20000000      -1.20000000
O        2.15672420      18.29873116      15.84571780      15.99940000      -0.46869984       1.13208353       0.43724192      477        2      -1.20000000      -1.20000000
O       20.63538069      18.64217614      14.94981905      15.99940000       0.29584185       0.29491084      -1.14238348      478        2      -1.20000000      -1.20000000
O        6.58649151       4.52046183      14.16295107      15.99940000      -0.37690089      -0.50402181      -0.58689323      479        2      -1.20000000      -1.20000000
O       16.32795740      16.99977326      17.37193329      15.99940000      -0.51543383      -0.01232948       0.64109373      480        2      -1.20000000      -1.20000000
O       21.64159884      16.24331316       4.51172579      15.99940000      -0.43704947      -0.57571883      -0.58612992      481        2      -1.20000000      -1.20000000
O       16.55271004      16.77300656       2.24559100      15.99940000       0.66462293       0.95979575       0.34111876      482        2      -1.20000000      -1.20000000
O        8.66722661      15.18662272      13.05362586      15.99940000       0.04847150       0.20774235      -1.02739674      483        2      -1.20000000      -1.20000000
O       15.68768323       0.72304252      15.23710383      15.99940000      -0.98391789      -0.30643643       0.18351821      484        2      -1.20000000      -1.20000000
O       18.95115286       0.68831274       4.65540067      15.99940000       0.06007116       0.24795531      -0.46149107      485        2      -1.20000000      -1.20000000
O       14.66045544       9.05931016      11.89564796      15.99940000      -0.84133970       0.39368667      -0.32549339      486        2      -1.20000000      -1.20000000
O        5.38461997       9.13993988       5.56000499      15.99940000      -0.30841508      -0.60327969       0.17304270      487        2      -1.20000000      -1.20000000
O        7.99993022      13.93896782       5.31115434      15.99940000       0.40243599      -0.68018416       0.01097079      488        2      -1.20000000      -1.20000000
O       20.59990505      19.99890066       9.98617693      15.99940000      -0.23343735       0.76011658       1.00864414      489        2      -1.20000000      -1.20000000
O        3.51221839       2.11100603      18.23327471      15.99940000       0.03222596       1.12886175       0.06971183      490        2      -1.20000000      -1.20000000
O        3.13237990      10.78614784      20.33854988      15.99940000       0.35523818       0.04053484       0.62662575      491        2      -1.20000000      -1.20000000
O        1.55129398       8.80696496      21.37105936      15.99940000      -0.09780193       0.89996730      -0.07035245      492        2      -1.20000000      -1.20000000
O        9.73568225       1.66420234       1.74294453      15.99940000      -0.16122299       0.57177518      -0.27938717      493        2      -1.20000000      -1.20000000
O       15.87509575      20.39641251      19.44141074      15.99940000       0.88960904       0.47003655      -0.44772739      494        2      -1.20000000      -1.20000000
O       21.60281682      19.18057650       7.75236619      15.99940000       1.49052293       0.05450755       0.46883747      495        2      -1.20000000      -1.20000000
O       11.74256671      17.54441597       6.16559567      15.99940000       0.19294360      -0.38407099       0.30379497      496        2      -1.20000000      -1.20000000
O        0.92265409      10.43341433       8.63369011      15.99940000      -0.30437333      -0.30652657       0.19503209      497        2      -1.20000000      -1.20000000
O       22.04380814       6.15029694       6.48546194      15.99940000      -0.36377326      -0.88570554      -0.25139874      498        2      -1.20000000      -1.20000000
O       10.79974236       2.25482247      13.95832027      15.99940000       0.94258122       1.07479560      -0.56125063      499        2      -1.20000000      -1.20000000
O       12.80882691      18.48941289       1.19015236      15.99940000       0.33260812      -0.15524251       0.93787009      500        2      -1.20000000      -1.20000000
O       16.12537728      10.48383056      15.44380203      15.99940000      -0.00279981       0.28070031       0.78309393      501        2      -1.20000000      -1.20000000
O       10.97252310      17.67249369      18.71430189      15.99940000      -0.74212655      -0.23966781      -0.00423931      502        2      -1.20000000      -1.20000000
O        0.25546548       1.39402699       4.85829687      15.99940000       0.40393615       0.22969144      -0.07378559      503        2      -1.20000000      -1.20000000
O        6.97245484      12.65528292       0.34542898      15.99940000      -0.04188855      -0.11491133      -0.60753534      504        2      -1.20000000      -1.20000000
O        0.78292735      16.52643870       6.65976257      15.99940000      -0.24577093       0.47252723      -0.85081448      505        2      -1.20000000      -1.20000000
O       21.37157024      22.83109282      21.94355100      15.99940000      -0.20248224      -0.39632347       0.47655665      506        2      -1.20000000      -1.20000000
O       12.02039295      15.36495270      19.34581892      15.99940000       0.01379812      -0.24646117      -0.08290559      507        2      -1.20000000      -1.20000000
O        6.00162804      21.86902600       5.23238754      15.99940000      -1.53753909      -0.05747582       0.10471246      508        2      -1.20000000      -1.20000000
O       12.72014156       3.50608045      12.72407406      15.99940000      -1.16288211      -0.56473594       0.94482712      509        2      -1.20000000      -1.20000000
O       12.24055412      12.00678202      21.76865623      15.99940000      -0.47054242      -0.93984132       0.01018768      510        2      -1.20000000      -1.20000000
O       20.80692965      17.45275522       9.80627905      15.99940000       0.45903519      -2.03665533      -0.51603799      511        2      -1.20000000      -1.20000000
O       22.30432365       8.67438568       6.85402886      15.99940000      -0.81380295       0.02228940      -0.31762000      512        2      -1.20000000      -1.20000000
O       12.78259184      18.98335575      15.42143843      15.99940000      -0.84492359       0.51418624      -2.01319604      513        2      -1.20000000      -1.20000000
O        9.36073792       0.05655555      14.36853111      15.99940000      -1.40734318      -0.46487566       0.43846502      514        2      -1.20000000      -1.20000000
O       15.98714366       1.60409274       3.03417351      15.99940000       0.12494720      -0.30748211       0.43976291      515        2      -1.20000000      -1.20000000
O       15.63739518      22.68915873       8.07789866      15.99940000       1.26497667      -0.49425214      -1.04682174      516        2      -1.20000000      -1.20000000
O        8.88729323       9.74263593      18.89432141      15.99940000       0.21246518       0.43864384       0.01360497      517        2      -1.20000000      -1.20000000
O        9.92979215      20.65779642       7.91401017      15.99940000      -1.45877068      -0.12063277       0.92066190      518        2      -1.20000000      -1.20000000
O       17.99692883      15.10926667      17.85351646      15.99940000       0.13469409      -0.72833309      -1.17853114      519        2      -1.20000000      -1.20000000
O       15.97833481      10.53162340      10.12540509      15.99940000      -0.06224963      -0.81235705       0.60757138      520        2      -1.20000000      -1.20000000
O       12.18109570       0.72772767      12.18913779      15.99940000      -1.00822459      -0.49035749      -0.43713602      521        2      -1.20000000      -1.20000000
O        2.98454063       1.61261552      13.62786685      15.99940000       0.61804262       0.26038156       0.25831495      522        2      -1.20000000      -1.20000000
O       17.88056582      11.41002915      18.66309543      15.99940000       0.60564646      -0.58761990      -0.87486411      523        2      -1.20000000      -1.20000000
O       10.03115409      10.66367653      21.11028067      15.99940000       0.37137839       0.23971024      -0.37333978      524        2      -1.20000000      -1.20000000
O        7.05760179       8.05537315      18.49250428      15.99940000      -0.06631976       0.25729355       0.31268277      525        2      -1.20000000      -1.20000000
O        9.05315312      19.52156514      21.78691931      15.99940000      -0.01802270       0.38063008       0.40094647      526        2      -1.20000000      -1.20000000
O        0.39528172      18.05710658      13.72895787      15.99940000       0.60493479      -0.05055421       0.03699100      527        2      -1.20000000      -1.20000000
O       10.33771592      14.13737248       4.27895676      15.99940000       0.49299633       0.89658527       0.52746086      528        2      -1.20000000      -1.20000000
O       15.61448869       7.21004154      18.62721199      15.99940000      -0.26175214       0.02153890      -0.16317255      529        2      -1.20000000      -1.20000000
O       21.03174979       3.95517986      13.57835776      15.99940000       1.14681234      -0.07332628      -0.92107671      530        2      -1.20000000      -1.20000000
O        8.16774500      12.12692253      10.86875315      15.99940000       0.48326147       0.16660249       0.12144245      531        2      -1.20000000      -1.20000000
O       20.64895661      16.11525488       6.89194437      15.99940000       1.03604066       0.07253851       1.13601875      532        2      -1.20000000      -1.20000000
O       15.11645648      15.06833719      13.34636348      15.99940000      -0.70058208       0.31819769       0.68108667      533        2      -1.20000000      -1.20000000
O        9.93978402       4.54833946      20.85961343      15.99940000       1.05041155      -1.59188603      -0.00229329      534        2      -1.20000000      -1.20000000
O        3.50859979       7.69591946       6.52799470      15.99940000       0.81858107       0.43356059      -0.64494448      535        2      -1.20000000      -1.20000000
O        7.16613195      14.25480096       2.75965195      15.99940000      -0.23735581       0.09598081       0.17115848      536        2      -1.20000000      -1.20000000
O       18.01325075      13.81843927       3.37596984      15.99940000      -0.04299560       0.61084154       0.70387965      537        2      -1.20000000      -1.20000000
O       12.41112878      22.78983602       0.49472726      15.99940000       0.38086150       0.16596616       0.64436644      538        2      -1.20000000      -1.20000000
O       16.52396926       3.93879862      12.21271342      15.99940000      -0.89751488       0.88951027       0.96689984      539        2      -1.20000000      -1.20000000
O        8.57485388      12.33340342      19.55080870      15.99940000      -0.21017035      -0.25794508       0.24104041      540        2      -1.20000000      -1.20000000
O       18.99902780       6.81623578       0.18395763      15.99940000      -1.30655278      -0.51802155       0.18229679      541        2      -1.20000000      -1.20000000
O        6.08150234      10.86330309       7.32588894      15.99940000      -0.11057571      -0.49671272      -1.96747793      542        2      -1.20000000      -1.20000000
O       17.94443211      21.27430450       8.58822756      15.99940000      -0.06088340       0.13589054      -1.04599591      543        2      -1.20000000      -1.20000000
O       12.18484486       6.17663962      12.73964887      15.99940000       0.44392321      -0.51953738      -0.17292127      544        2      -1.20000000      -1.20000000
O       10.52023310      21.17987638      12.65209443      15.99940000       1.19564733       0.21991064      -0.51353550      545        2      -1.20000000      -1.20000000
O       20.39884748      12.51628988       3.27317755      15.99940000       0.41771521       0.22931948       0.08458305      546        2      -1.20000000      -1.20000000
O        2.39202929       5.50378714       7.80672947      15.99940000       0.22644188       0.47661759      -0.71215115      547        2      -1.20000000      -1.20000000
O        4.20972971      22.41235680      11.15207525      15.99940000       1.29347780       0.72191059      -0.18919692      548        2      -1.20000000      -1.20000000
O       14.42340104       2.64631223      19.64041757      15.99940000      -0.05437734      -0.13783606      -0.55373355      549        2      -1.20000000      -1.20000000
O       10.87003465       6.37914150      16.50844513      15.99940000       0.66991042       0.27389464       0.03704046      550        2      -1.20000000      -1.20000000
O        2.02360997       5.51714518       1.81317498      15.99940000       0.23512315      -0.11984197      -0.32735238      551        2      -1.20000000      -1.20000000
O       13.40281799      22.95710499      16.13887973      15.99940000      -0.22624658      -0.05956438       0.19002083      552        2      -1.20000000      -1.20000000
O        3.34800848       2.96775199       7.62019176      15.99940000       0.91059084       0.63101623      -0.62261624      553        2      -1.20000000      -1.20000000
O        5.54484201      17.74834347      12.58846615      15.99940000      -0.13002804      -0.52182909       0.45351318      554        2      -1.20000000      -1.20000000
O        6.98008411      14.67140251      15.08382398      15.99940000       1.24172652      -1.82000512      -0.18271160      555        2      -1.20000000      -1.20000000
O        5.46872454       1.15493328      16.84159895      15.99940000      -0.39278881       0.42765566       0.06174997      556        2      -1.20000000      -1.20000000
O        6.38913008       0.47175521      11.30433915      15.99940000       0.41168285       0.74453482       0.01998306      557        2      -1.20000000      -1.20000000
O       21.05370005      22.70549621      19.09880252      15.99940000      -0.75035262       0.06238619       0.40405170      558        2      -1.20000000      -1.20000000
O        7.98364533      17.60600619       2.88568149      15.99940000       0.93158502       0.04063247       0.05092086      559        2      -1.20000000      -1.20000000
O       12.33906391       9.13133389       7.19034312      15.99940000       0.12774601       1.69311779      -0.62384313      560        2      -1.20000000      -1.20000000
O        1.79880300      14.94491529      15.31282055      15.99940000       0.65935820       0.46136613       0.41163653      561        2      -1.20000000      -1.20000000
O        6.71346747       2.46786204       9.49761898      15.99940000       0.39126431       0.74769885       0.20771311      562        2      -1.20000000      -1.20000000
O       19.99282375       5.25584746       2.26357256      15.99940000      -0.25389768       0.14417593       1.34157250      563        2      -1.20000000      -1.20000000
O       18.76427841      21.52502945       3.15809807      15.99940000      -1.43160026      -0.55658387       1.21334965      564        2      -1.20000000      -1.20000000
O        3.00674266      10.26101101      14.17284356      15.99940000       0.76059767      -0.22568681      -0.70481414      565        2      -1.20000000      -1.20000000
O        1.18369242       3.55294483       9.07347113      15.99940000       0.56418175       1.03193613      -0.16416755      566        2      -1.20000000      -1.20000000
O       20.96921726       5.05647504      16.96829284      15.99940000       0.87713217       0.32533527       0.94791965      567        2      -1.20000000      -1.20000000
O       12.59233915      21.38905135      11.10613784      15.99940000      -0.01407891       0.57070012      -0.16317453      568        2      -1.20000000      -1.20000000
O       10.37943448      14.62073634      15.45875609      15.99940000      -1.51090366       0.58489152      -1.43539079      569        2      -1.20000000      -1.20000000
O        5.47373669      18.21556136       2.52934880      15.99940000      -1.36400870      -0.34997910      -1.11921259      570        2      -1.20000000      -1.20000000
O       13.04157498       9.16884308       3.23553303      15.99940000      -0.52625777      -0.12468342       0.17787569      571        2      -1.20000000      -1.20000000
O       19.49084501      15.43019576      10.94874277      15.99940000       0.18605000      -0.91855563       0.29697814      572        2      -1.20000000      -1.20000000
O       16.72415520       0.94944579      12.90819237      15.99940000       0.36811742       0.24061006      -0.39295120      573        2      -1.20000000      -1.20000000
O       14.06312994      17.45089176      13.65872185      15.99940000      -0.04076076       0.22739906       0.13354343      574        2      -1.20000000      -1.20000000
O       21.21502653      22.24548057      11.50286571      15.99940000      -0.19360146       0.58473912      -0.07481914      575        2      -1.20000000      -1.20000000
O        5.32714055      12.12876945      21.10403080      15.99940000      -0.80897537      -0.36027926       0.02031419      576        2      -1.20000000      -1.20000000
O        4.79961146       2.68511833       2.14564623      15.99940000      -0.15869462      -0.35880168      -0.08471747      577        2      -1.20000000      -1.20000000
O        8.67244023       9.76913578       9.57156070      15.99940000       0.35124867       0.34043597      -0.37847961      578        2      -1.20000000      -1.20000000
O        3.03269661      18.28430478      13.42893202      15.99940000       0.86014664      -0.05243168      -0.96245856      579        2      -1.20000000      -1.20000000
O       11.13700470      14.84688145      21.88620444      15.99940000       1.72088501       0.66423567       0.80771253      580        2      -1.20000000      -1.20000000
O        8.59393665       3.89890220       8.43039181      15.99940000       0.22802509       0.20325407       0.73857492      581        2      -1.20000000      -1.20000000
O       12.07432899      -0.03138776      18.45379247      15.99940000       0.44351477      -0.06227521       0.80603213      582        2      -1.20000000      -1.20000000
O       13.10572668      10.32061375      13.96154166      15.99940000      -0.24086928       0.07331164       0.55167894      583        2      -1.20000000      -1.20000000
O        9.55627492      12.76447001      17.05911425      15.99940000       0.06464756      -0.33726487      -0.92979911      584        2      -1.20000000      -1.20000000
O        7.37067418       0.51825886       1.68590010      15.99940000       0.41368904       0.21578576       0.34609007      585        2      -1.20000000      -1.20000000
O        1.14819339       4.48115924      13.24941369      15.99940000       0.11124194       1.00807908       0.21064213      586        2      -1.20000000      -1.20000000
O       16.89579947       7.49063431      22.15995245      15.99940000       0.47887771      -0.21246310      -0.14391627      587        2      -1.20000000      -1.20000000
O        4.32523398      14.87420333       8.44387228      15.99940000      -0.28353063      -0.83141515       0.62563679      588        2      -1.20000000      -1.20000000
O       13.56805150      13.04161458       1.30399818      15.99940000      -0.43552467      -0.59366658      -0.25500772      589        2      -1.20000000      -1.20000000
O       13.97593265       1.77690472       7.58263449      15.99940000       1.31421515      -0.44521723      -0.02746822      590        2      -1.20000000      -1.20000000
O        0.90096272       5.99326130      16.71215862      15.99940000      -0.60874440      -0.88562719       0.47741503      591        2      -1.20000000      -1.20000000
O        7.12357068      19.42941520       4.51347836      15.99940000       0.51264560       0.11361734       0.50705197      592        2      -1.20000000      -1.20000000
O       15.43363389       4.49319351      18.30022634      15.99940000       0.70775689      -0.05495495      -0.00428062      593        2      -1.20000000      -1.20000000
O        4.00750436       2.90741628      15.72818988      15.99940000      -0.87577875       0.65525171       0.78193470      594        2      -1.20000000      -1.20000000
O        1.33884954      14.03594435      17.68166477      15.99940000       0.17619074       0.54811724       0.49998230      595        2      -1.20000000      -1.20000000
O       18.92193028      19.75293662      16.55656902      15.99940000       0.12555488      -0.69658916       0.13168453      596        2      -1.20000000      -1.20000000
O        8.51404612       7.71289738       3.24586940      15.99940000       0.92811409      -0.88252039       0.02268343      597        2      -1.20000000      -1.20000000
O       16.22086063      10.35853033       0.83203363      15.99940000      -0.24932593       0.57384819       0.23496997      598        2      -1.20000000      -1.20000000
O        4.07139876      21.56703964       2.18087964      15.99940000       0.44250398       0.25141999      -0.00072551      599        2      -1.20000000      -1.20000000
O       22.36701930      20.37100327       2.30082434      15.99940000       0.84202699      -0.01149845      -0.17889783      600        2      -1.20000000      -1.20000000
O        5.51149299       2.19712744      13.77558166      15.99940000       0.18787646       0.41162032      -0.25630030      601        2      -1.20000000      -1.20000000
O       13.99249687      10.29362523       5.59898070      15.99940000      -0.10877905      -0.54969720       0.61530714      602        2      -1.20000000      -1.20000000
O       13.04141417      18.02366244       3.93276433      15.99940000      -1.11808622      -0.58893940      -0.29987973      603        2      -1.20000000      -1.20000000
O       16.95929058       2.52293903       5.21291814      15.99940000       0.43108737       1.55049219       0.69818840      604        2      -1.20000000      -1.20000000
O        4.27192457      16.44777258       6.42247856      15.99940000       0.24051427      -0.02123717       0.11778530      605        2      -1.20000000      -1.20000000
O        7.36393172       2.82254482      12.05654004      15.99940000       0.52212041      -0.51232883      -0.09789546      606        2      -1.20000000      -1.20000000
O        3.35969206      14.43906731      21.85770692      15.99940000      -0.48001718       0.03927334      -0.24967666      607        2      -1.20000000      -1.20000000
O        5.42745170       3.69763104      17.71562647      15.99940000      -0.63564510      -0.80987097       0.35860128      608        2      -1.20000000      -1.20000000
O       13.61223393      21.30452277      20.84881284      15.99940000       0.77895621       0.18593695      -0.30122279      609        2      -1.20000000      -1.20000000
O       18.76709353       7.35475552      20.14185838      15.99940000      -0.34312805      -0.01060120      -0.55611876      610        2      -1.20000000      -1.20000000
O        7.50131498      16.67529541      19.69032887      15.99940000       0.14813697      -0.41377085       0.44096099      611        2      -1.20000000      -1.20000000
O       17.28182941       5.39763566      14.26896802      15.99940000      -0.75793145       0.52469601       0.52370171      612        2      -1.20000000      -1.20000000
O       11.67935932       3.93423935      17.26841374      15.99940000       0.82851502      -1.13933650       0.15115478      613        2      -1.20000000      -1.20000000
O       18.70330275      17.84645125      11.14660412      15.99940000       0.28626377      -0.63071379      -0.32357036      614        2      -1.20000000      -1.20000000
O       19.92475298      10.21196715      11.88492330      15.99940000       0.13638250      -0.21263064       0.01090139      615        2      -1.20000000      -1.20000000
O        7.92299592      10.13615694       2.68458889      15.99940000      -0.73650287      -0.47162571       0.40001388      616        2      -1.20000000      -1.20000000
O       22.49612926      11.81880800       4.90576932      15.99940000      -0.78574567      -0.99360291       0.16450249      617        2      -1.20000000      -1.20000000
O       17.68054663      14.88247613      12.88841152      15.99940000       0.07648793      -1.04373502      -0.06655110      618        2      -1.20000000      -1.20000000
O       14.49563821      18.82743382      21.25340892      15.99940000      -0.66101924       1.04974877      -1.64033832      619        2      -1.20000000      -1.20000000
O       14.80161765      19.96151660      13.80116959      15.99940000       0.07185039       0.07185718       0.30353718      620        2      -1.20000000      -1.20000000
O       17.50604822       6.01020706      11.02941898      15.99940000      -0.42031777       0.97032403       0.71594527      621        2      -1.20000000      -1.20000000
O        1.70511861       1.08983791       6.96533156      15.99940000       1.68394830       0.60036695       0.61570808      622        2      -1.20000000      -1.20000000
O       20.16511119      11.76447624      17.28646658      15.99940000      -0.03626775      -0.09812742       0.61263023      623        2      -1.20000000      -1.20000000
O       11.53522675       6.85495371       2.89722579      15.99940000       0.37117854      -1.16842545       0.44465089      624        2      -1.20000000      -1.20000000
O       17.44418491      17.06610652      21.97017068      15.99940000       0.23066787      -0.07857242      -0.38307963      625        2      -1.20000000      -1.20000000
O        6.22814024      16.67211898       8.08707011      15.99940000       0.03329687       1.08508858      -1.14783575      626        2      -1.20000000      -1.20000000
O       21.37486473       2.10215024      18.62497632      15.99940000      -1.24139623      -0.57891981      -0.23515263      627        2      -1.20000000      -1.20000000
O        3.66183637      10.12652789       7.12451579      15.99940000      -0.68781412      -0.30924490      -0.51315797      628        2      -1.20000000      -1.20000000
O        1.95619665      13.70215057       4.76843210      15.99940000      -0.30777835      -0.23176464       0.23829876      629        2      -1.20000000      -1.20000000
O        2.52677150       7.90720634      16.67787135      15.99940000      -0.44124760      -0.74801209      -0.36442409      630        2      -1.20000000      -1.20000000
O       13.38195209       5.98371024      17.32235356      15.99940000       0.21022601      -0.28135915       0.59305105      631        2      -1.20000000      -1.20000000
O        1.25225004       3.20811374       1.08598179      15.99940000       0.38831181      -0.09134020      -0.92206272      632        2      -1.20000000      -1.20000000
O        9.34840458      17.40084133      11.86438088      15.99940000       0.37055263       0.27783504      -0.81363462      633        2      -1.20000000      -1.20000000
O       21.28194686      19.85154665      12.49046814      15.99940000       0.05395812      -0.60642737       0.30607749      634        2      -1.20000000      -1.20000000
O       13.59639614       0.49070073       9.93295274      15.99940000       0.99445513       0.70735978       0.69071201      635        2      -1.20000000      -1.20000000
O       18.96818270       1.27954172      18.74752756      15.99940000       0.20453173      -0.39434063       0.28222620      636        2      -1.20000000      -1.20000000
O        7.58036856       3.52713532      20.36158194      15.99940000      -1.02381488       0.74919967      -0.87164467      637        2      -1.20000000      -1.20000000
O        6.43408522      17.62015043      22.31360451      15.99940000      -0.99143807      -0.25601143      -0.12557269      638        2      -1.20000000      -1.20000000
O        6.36367354      16.07788628      17.29497967      15.99940000       0.15433698      -0.73750413      -0.05481884      639        2      -1.20000000      -1.20000000
O        1.49345923      14.13417122      20.24157367      15.99940000       1.25203821      -0.45384025       0.69963751      640        2      -1.20000000      -1.20000000
O       18.68240229      17.06266216      16.00230930      15.99940000       1.18020716       0.40744216      -0.32741293      641        2      -1.20000000      -1.20000000
O        1.52325666      20.30360351      14.42757234      15.99940000       0.32196174      -1.13822514      -1.07547738      642        2      -1.20000000      -1.20000000
O       21.58079278      11.19739826       0.15771588      15.99940000      -0.27958778       0.82706628      -0.07477010      643        2      -1.20000000      -1.20000000
O        4.99555571       9.79498265       9.51894768      15.99940000      -1.20896891      -0.79148675      -0.11538929      644        2      -1.20000000      -1.20000000
O        3.66405496      13.16240643      19.19323271      15.99940000      -0.84533833      -0.02281394      -1.12101729      645        2      -1.20000000      -1.20000000
O        9.84812682       8.51482210       7.42612843      15.99940000       0.78777974      -1.03661775      -0.25775347      646        2      -1.20000000      -1.20000000
O        1.53151865      12.55175523       7.06756667      15.99940000      -0.16154992      -1.01683225      -0.14885472      647        2      -1.20000000      -1.20000000
O       12.46142113      20.75011215      17.37603260      15.99940000       1.07881294       0.34223919       1.10502494      648        2      -1.20000000      -1.20000000
O        1.33572076      14.25740745      11.93856568      15.99940000      -0.53807448       0.77246841      -0.27932353      649        2      -1.20000000      -1.20000000
O        4.38709085      14.74284220      15.89083847      15.99940000       0.02697412       0.63542989      -0.21288494      650        2      -1.20000000      -1.20000000
O        9.03329666       8.32573589      16.57216405      15.99940000      -0.10105537      -0.28497293       0.42902786      651        2      -1.20000000      -1.20000000
O        5.96479274      22.05592781      15.41207274      15.99940000      -0.49958775      -0.82807785      -0.08804450      652        2      -1.20000000      -1.20000000
O        2.19668578      20.46882823      17.46771144      15.99940000      -0.72826085       0.47695008      -0.29361815      653        2      -1.20000000      -1.20000000
O       16.65029733       2.87680582       0.15378850      15.99940000       0.21635700      -0.92873927       0.76287777      654        2      -1.20000000      -1.20000000
O       20.68727214      17.24671966      12.57148375      15.99940000       0.43023830       0.38628511      -0.57786930      655        2      -1.20000000      -1.20000000
O       13.69437430      17.18256102      18.34141849      15.99940000       1.50936193       0.46451296      -0.14442751      656        2      -1.20000000      -1.20000000
O        1.47886734      18.77756770       0.84736010      15.99940000      -0.67529127       0.45961272      -1.86054536      657        2      -1.20000000      -1.20000000
O       10.53263404      11.37093223      10.68435682      15.99940000      -0.03154463       0.79994538       0.28388748      658        2      -1.20000000      -1.20000000
O       20.34173175      22.93978105      14.03851299      15.99940000      -0.32053410       0.03878752       0.20734870      659        2      -1.20000000      -1.20000000
O        9.06248085      21.60009519       1.11871491      15.99940000      -0.15961455       0.54880243      -0.43297079      660        2      -1.20000000      -1.20000000
O       20.66503413      17.93036836      17.51464660      15.99940000       0.96881618      -0.57051994      -0.87407069      661        2      -1.20000000      -1.20000000
O        3.60076521       3.90332518       0.30204345      15.99940000      -0.02531758       0.31631964      -0.05838346      662        2      -1.20000000      -1.20000000
O        3.42339685       1.19146229       0.53008186      15.99940000       0.95581245      -0.50167705       0.16599926      663        2      -1.20000000      -1.20000000
O       19.63639149       2.12670022       9.27769460      15.99940000       0.63563191       1.78580272      -0.13489165      664        2      -1.20000000      -1.20000000
O       17.10459732       8.04859800      15.14742094      15.99940000      -0.54936055      -1.23273388       0.35235416      665        2      -1.20000000      -1.20000000
O       21.14434964      20.51630471      20.99100431      15.99940000      -0.24977848      -0.54758875       0.78284687      666        2      -1.20000000      -1.20000000
O        5.96390840      13.46989782      10.14803911      15.99940000      -0.30937785       0.91889135       0.08787794      667        2      -1.20000000      -1.20000000
O       14.97603797      18.79337151       2.40601926      15.99940000      -0.11908073       0.20222555       0.40822293      668        2      -1.20000000      -1.20000000
O        2.03924440      -0.04954202      18.19644079      15.99940000       0.04494802      -1.05730514       0.25487434      669        2      -1.20000000      -1.20000000
O        2.02262475       0.89632973      11.17803508      15.99940000       1.00083386      -1.25678393      -0.66302550      670        2      -1.20000000      -1.20000000
O       22.13900426       5.71721826       9.77646053      15.99940000       0.43538114       0.61596230       0.78513372      671        2      -1.20000000      -1.20000000
O       16.23119269      14.74101866       0.24179294      15.99940000       0.36953265       1.18975326      -0.97315527      672        2      -1.20000000      -1.20000000
O        7.71193418       6.33800378      11.75045277      15.99940000      -0.15806221       0.46734120       0.52297283      673        2      -1.20000000      -1.20000000
O       12.86934944       7.15999550       0.65807172      15.99940000      -0.12641988      -0.14173927       0.41638294      674        2      -1.20000000      -1.20000000
O       17.87953761       0.55200869       7.76160840      15.99940000      -0.06943738       0.44990246      -0.26567491      675        2      -1.20000000      -1.20000000
O        9.55391848      22.97829116      18.81232982      15.99940000      -0.41945406      -0.13578228       0.31186805      676        2      -1.20000000      -1.20000000
O       16.13441570      14.69565506       4.96974758      15.99940000       0.02724206       0.59599370      -0.41482508      677        2      -1.20000000      -1.20000000
O       15.36745262      20.78343775       4.91504179      15.99940000      -0.26657482       0.98874588      -0.40009338      678        2      -1.20000000      -1.20000000
O        3.11636167      13.83547791       2.31752705      15.99940000      -0.28648731       0.75851565      -0.06282735      679        2      -1.20000000      -1.20000000
O        0.85972417       8.66629074       2.86185835      15.99940000       0.40042599      -0.22374915       0.47014772      680        2      -1.20000000      -1.20000000
O       17.36099324      20.28943139      14.28236463      15.99940000      -0.44123783       1.15250552      -0.91405805      681        2      -1.20000000      -1.20000000
O        8.84455697      20.66132848      14.75386047      15.99940000      -0.24845339      -0.49135968      -0.20150358      682        2      -1.20000000      -1.20000000
O        6.13008518       8.57022465      11.56100749      15.99940000      -0.15437751      -0.23183631       1.41730857      683        2      -1.20000000      -1.20000000
O        1.90331405      11.72530109      12.08908256      15.99940000       0.26974937       1.00585911       0.51366663      684        2      -1.20000000      -1.20000000
O        6.89141693      12.63993514      17.58606818      15.99940000      -0.04296500       0.81990257       0.39780788      685        2      -1.20000000      -1.20000000
O       10.94448761      21.99775542       5.87390774      15.99940000       1.11858022       0.08220780       0.19023781      686        2      -1.20000000      -1.20000000
O        4.74767149      19.88081297       8.62029259      15.99940000      -0.26290977      -0.08228452       0.14802724      687        2      -1.20000000      -1.20000000
O       11.12810975      16.38220231      10.22151176      15.99940000       0.84010689       0.72934328      -0.36667484      688        2      -1.20000000      -1.20000000
O       12.99876855      11.16385156      11.35373113      15.99940000      -0.89670010      -0.74048630      -1.10793720      689        2      -1.20000000      -1.20000000
O       16.80841862       0.07010330      10.26308436      15.99940000       1.11492309       0.12188126      -0.30266436      690        2      -1.20000000      -1.20000000
O       11.87293141      12.13990227       8.65979037      15.99940000      -0.97394051       0.13895059       2.10074964      691        2      -1.20000000      -1.20000000
O       15.29005620       5.79313163       7.94421875      15.99940000       1.25696809      -0.07346684       0.30761820      692        2      -1.20000000      -1.20000000
O       14.31042668       9.74236533      18.62741135      15.99940000       0.49085658       0.24205367      -0.35242077      693        2      -1.20000000      -1.20000000
O       13.06236174      22.47889894       7.73952529      15.99940000       0.16158422       0.75398833       0.00112094      694        2      -1.20000000      -1.20000000
O        0.44385964      21.22300255       7.59789917      15.99940000       0.63388521      -0.48283061      -0.22119173      695        2      -1.20000000      -1.20000000
O        5.40999102      14.44481776       4.91471798      15.99940000      -0.07099094       0.51577480       0.70558054      696        2      -1.20000000      -1.20000000
O        2.83693104       9.46892453       4.57114723      15.99940000       0.26116467       0.30850541      -1.21858470      697        2      -1.20000000      -1.20000000
O       19.56234995      20.25439800       1.03058585      15.99940000       0.67389538       0.68028603      -1.00027672      698        2      -1.20000000      -1.20000000
O        1.25050967       9.19360950      12.51210168      15.99940000      -0.23869700       0.02085308       0.94967958      699        2      -1.20000000      -1.20000000
O       21.34494517       2.09979035       0.58739656      15.99940000      -0.27972945       0.10974743       0.26374495      700        2      -1.20000000      -1.20000000
O       19.31627346       1.50438429      22.08663442      15.99940000       0.55504748      -0.40598887       0.96941588      701        2      -1.20000000      -1.20000000
O       15.84247534       9.49027077      20.65185267      15.99940000      -0.24876755      -0.65250550      -0.65947296      702        2      -1.20000000      -1.20000000
O       15.94640751       5.05513036       1.33769956      15.99940000       0.20133418      -0.16034996       0.02530523      703        2      -1.20000000      -1.20000000
O        2.89045047       7.14243595       3.54526591      15.99940000       0.33635299      -1.13012716       0.00139108      704        2      -1.20000000      -1.20000000
O       20.40944593      14.24916022      18.19799568      15.99940000      -0.48954558      -0.78968377       0.17612065      705        2      -1.20000000      -1.20000000
O       15.21042445      22.23260391       2.63950232      15.99940000       1.04901780      -0.29239443       0.38837171      706        2      -1.20000000      -1.20000000
O       14.23980004       2.35751058       4.95919214      15.99940000      -0.13270467      -0.58660514      -0.38508241      707        2      -1.20000000      -1.20000000
O       19.25972871      16.19615776       0.19081689      15.99940000       0.83613030       0.20894430      -1.52944747      708        2      -1.20000000      -1.20000000
O       13.06979400       2.12783266      21.81944538      15.99940000       1.58619296      -0.63598832      -0.34876161      709        2      -1.20000000      -1.20000000
O       17.24503141      11.71071020      21.22019297      15.99940000       1.53534199      -1.72166700      -0.85300315      710        2      -1.20000000      -1.20000000
O       15.33762367       8.05876694       9.49308213      15.99940000       0.11750754       0.48057191       0.47865111      711        2      -1.20000000      -1.20000000
O       17.19418123       7.63941650       7.52469275      15.99940000       0.18942043      -0.15633160      -0.38671647      712        2      -1.20000000      -1.20000000
O        7.71460470       3.24916121       1.74458426      15.99940000       0.60752841       0.27283455      -0.18988939      713        2      -1.20000000      -1.20000000
O       16.92583091       3.64771890       9.62121379      15.99940000      -0.69923030      -0.36135474      -0.49000040      714        2      -1.20000000      -1.20000000
O        3.52803832       0.95852425       9.03368594      15.99940000       1.19767055       0.33939933       0.78815322      715        2      -1.20000000      -1.20000000
O       16.93347099      19.10755590       9.49641787      15.99940000       0.16728740       0.16224360      -0.15591433      716        2      -1.20000000      -1.20000000
O       18.55472229      13.59695520      19.97216059      15.99940000      -1.69178562       0.36775223       0.15069176      717        2      -1.20000000      -1.20000000
O       19.11776110       7.80756654      12.79156128      15.99940000       1.08741801      -0.34006419       0.23370447      718        2      -1.20000000      -1.20000000
O        7.84023757      10.11795996       5.33489648      15.99940000       0.36278943       0.72891237       0.10423384      719        2      -1.20000000      -1.20000000
O        7.41240241      10.66085362      20.93439885      15.99940000       0.55247636      -0.57244668      -0.13495011      720        2      -1.20000000      -1.20000000
O        5.52249889      16.79061713      14.93377312      15.99940000      -0.03460865      -1.21672788       0.65074874      721        2      -1.20000000      -1.20000000
O       14.66458757       5.11405363      13.52285031      15.99940000      -0.04461974      -0.27279498       0.39630252      722        2      -1.20000000      -1.20000000
O        4.34068193       6.71807189       8.95002493      15.99940000      -0.15866702       0.43522976       1.28035993      723        2      -1.20000000      -1.20000000
O       16.43220788      18.85400401      12.12943098      15.99940000      -0.69311151      -0.97352380      -0.68949171      724        2      -1.20000000      -1.20000000
O       22.73431136       3.65187643      15.46155788      15.99940000       0.62553023      -1.02011714      -0.96164131      725        2      -1.20000000      -1.20000000
O        1.15398857       1.93652951      19.83208009      15.99940000      -0.04453340       0.76811788      -0.50142996      726        2      -1.20000000      -1.20000000
O       14.69010793      22.22621726      18.10390329      15.99940000       0.31638019       0.38379146       0.51548087      727        2      -1.20000000      -1.20000000
O        6.31332305      21.13549978      10.25061854      15.99940000       0.08940952      -0.07959525      -1.57171056      728        2      -1.20000000      -1.20000000
O        1.54482342      16.19060483      22.35308968      15.99940000      -0.63200404       0.57749006      -1.18071024      729        2      -1.20000000      -1.20000000
O       20.01718382      11.71408964       9.64544500      15.99940000      -0.67313898      -0.92850493      -0.35562343      730        2      -1.20000000      -1.20000000
O        6.24434877       5.00002603       9.44654551      15.99940000       0.08071120       0.95139010       0.60001727      731        2      -1.20000000      -1.20000000
O       10.93493847       0.62230304       3.82122604      15.99940000       0.97658130      -0.56117174      -1.29161522      732        2      -1.20000000      -1.20000000
O       21.72914943      12.34884911      11.55572505      15.99940000       0.71437917      -0.41325498      -0.56846459      733        2      -1.20000000      -1.20000000
O       21.39313098       7.76122837       4.53030929      15.99940000      -0.99242972      -0.38398638       1.06707533      734        2      -1.20000000      -1.20000000
O        5.70826024       5.95509756      19.06313176      15.99940000      -0.63283917       1.01168530       0.04595862      735        2      -1.20000000      -1.20000000
O       11.87278808      13.67767159      10.86610873      15.99940000       0.34766556       0.20532294       0.69677111      736        2      -1.20000000      -1.20000000
O        9.41141470      18.11447294       8.99970795      15.99940000      -0.21056345       0.68375340      -0.00592239      737        2      -1.20000000      -1.20000000
O        4.48665577      19.63186421       0.57688091      15.99940000       0.20551388      -0.40770516       0.95635142      738        2      -1.20000000      -1.20000000
O       10.49550176       7.66891633      14.27028575      15.99940000       0.01634948      -0.38419918       1.16449459      739        2      -1.20000000      -1.20000000
O       12.40066110       6.37511740       6.22087960      15.99940000      -0.76489004      -0.33899112       0.40330833      740        2      -1.20000000      -1.20000000
O       12.51714488      10.63464321      16.76973116      15.99940000      -0.62670604       0.44136695      -0.13016326      741        2      -1.20000000      -1.20000000
O       17.46268506      19.29466349       2.34145807      15.99940000      -0.51038197       0.62987471       0.47948221      742        2      -1.20000000      -1.20000000
O        3.73873005      18.97717517      10.89274558      15.99940000       0.50232645      -0.76114634       0.61887371      743        2      -1.20000000      -1.20000000
O       22.48313291      17.72136030       2.63975170      15.99940000      -0.55648206      -0.68439133       0.36950984      744        2      -1.20000000      -1.20000000
O       18.71598052      22.32096182      12.10720866      15.99940000      -1.02182984      -1.03388556       0.27836357      745        2      -1.20000000      -1.20000000
O       19.65288048      18.39578458      21.32049586      15.99940000       0.42369352      -0.24841685      -0.64724580      746        2      -1.20000000      -1.20000000
O       21.13046634       9.91997111       3.45879984      15.99940000       0.31366766       1.22281093      -1.19660083      747        2      -1.20000000      -1.20000000
O        6.21279613       7.11009036      13.84375618      15.99940000      -0.13864820      -0.45943343       0.20278646      748        2      -1.20000000      -1.20000000
O       21.07614669       3.84570105       8.33640097      15.99940000       0.20432303      -0.72713327      -0.62818448      749        2      -1.20000000      -1.20000000
O       15.68592274       9.38561856       4.08649791      15.99940000       0.71084927       0.91124095      -0.15280682      750        2      -1.20000000      -1.20000000
O        8.81371997      12.93317601      14.43296442      15.99940000      -1.05279889      -0.41246804       1.43986679      751        2      -1.20000000      -1.20000000
O        4.31173764       0.50626572       6.69132985      15.99940000       0.89422514      -0.27181609      -0.28100455      752        2      -1.20000000      -1.20000000
O        3.36602006      18.23393714      18.22477129      15.99940000       1.66020709       0.79040814      -0.19948123      753        2      -1.20000000      -1.20000000
O        2.43530488      22.08863681      22.19901830      15.99940000       0.27994138      -0.25971236      -0.65904061      754        2      -1.20000000      -1.20000000
O       11.98384494      10.70253651      19.42470203      15.99940000      -0.39589063      -0.49325981      -0.07365348      755        2      -1.20000000      -1.20000000
O       16.87702198      19.65171114       6.89846289      15.99940000       1.55338081       0.80558805      -0.27032226      756        2      -1.20000000      -1.20000000
O       11.47863047       6.81486445      21.28611229      15.99940000      -0.68356697       0.56397583       0.74872688      757        2      -1.20000000      -1.20000000
O        3.66162502       4.11835173      13.23877141      15.99940000       0.58995894      -0.83933128      -0.37102373      758        2      -1.20000000      -1.20000000
O       17.16872580      22.56452295      18.55174758      15.99940000      -2.06830084       1.01722008       0.16427816      759        2      -1.20000000      -1.20000000
O        6.81288745       1.02148648       6.23087256      15.99940000      -0.41647817      -0.81260626       0.77174235      760        2      -1.20000000      -1.20000000
O        5.37936189      10.50608481       0.70252064      15.99940000       0.99327009       0.37220959       0.03205532      761        2      -1.20000000      -1.20000000
O        8.25687196       5.95003734      19.47020602      15.99940000      -0.20182562       0.09576265      -1.10008015      762        2      -1.20000000      -1.20000000
O       19.82503970       7.21545454      10.44752462      15.99940000       1.31541165      -1.03724239       0.55951421      763        2      -1.20000000      -1.20000000
O        4.40971767      22.00305329      17.47379401      15.99940000      -0.29505745      -0.76981610       1.38204077      764        2      -1.20000000      -1.20000000
O       21.59988565       1.52017902       7.32578492      15.99940000      -0.44049142       0.70672920       1.45257552      765        2      -1.20000000      -1.20000000
O       13.32588038      22.65137348       4.56516369      15.99940000       0.39081541       1.13071263       0.14476678      766        2      -1.20000000      -1.20000000
O       15.91382832      20.78873253      22.09505047      15.99940000       0.13860419       0.38288451      -0.70487657      767        2      -1.20000000      -1.20000000
O       21.04004990       7.65115632       1.80110972      15.99940000      -0.16572948       0.38860338      -0.76252194      768        2      -1.20000000      -1.20000000
O       19.72940868       0.54422200       1.98297666      15.99940000       0.68826036       0.45325628       0.26127093      769        2      -1.20000000      -1.20000000
O        1.73489564      11.01159836       0.29157160      15.99940000      -0.61138395      -0.69050268       0.40974474      770        2      -1.20000000      -1.20000000
O       19.26137589      13.68198378      15.81619463      15.99940000      -1.03404975      -0.21111443       0.56611081      771        2      -1.20000000      -1.20000000
O       17.73304906       9.78596365       6.25707877      15.99940000      -0.12604649      -0.12711592       0.03876273      772        2      -1.20000000      -1.20000000
O        5.95554727       2.18535083      21.80840012      15.99940000      -0.19874296      -0.10127042       1.45195324      773        2      -1.20000000      -1.20000000
O       13.88263878      16.07015424       5.64267894      15.99940000      -0.08490961       0.31183174      -0.53659788      774        2      -1.20000000      -1.20000000
O       12.30631414       1.92749175       2.02671041      15.99940000       0.82701182      -0.59808986       0.25399568      775        2      -1.20000000      -1.20000000
O       16.27378157       3.06219289      14.55169426      15.99940000       0.61059776       0.78524553      -1.09332371      776        2      -1.20000000      -1.20000000
O        7.91162112      21.66416528       3.46499690      15.99940000       1.07136001      -0.46192773      -1.43928132      777        2      -1.20000000      -1.20000000
O       21.77494157      12.28205912       7.87448006      15.99940000       1.85226683      -0.40154304       0.40167612      778        2      -1.20000000      -1.20000000
O       12.47173022       4.90748511      14.98779009      15.99940000       0.56177504       1.29373843       1.92769283      779        2      -1.20000000      -1.20000000
O        6.74753114      13.47226088      12.75069949      15.99940000       0.57208742      -0.52484538       0.85803434      780        2      -1.20000000      -1.20000000
O       21.48669581       3.15643281      10.62860728      15.99940000       0.48589189      -0.44774916      -0.13637936      781        2      -1.20000000      -1.20000000
O       10.62437374       2.07390558      19.07087721      15.99940000       0.70226212       0.29337713      -0.03713113      782        2      -1.20000000      -1.20000000
O       19.18810274      22.10283830      20.86332072      15.99940000      -0.46460946       0.51645263      -0.04637048      783        2      -1.20000000      -1.20000000
O        9.19494672       3.89989957      18.17486407      15.99940000       1.00666388      -1.03322384      -0.41582360      784        2      -1.20000000      -1.20000000
O       14.73703444      11.53624858      21.67651136      15.99940000      -0.14280376      -0.54864703       1.45775294      785        2      -1.20000000      -1.20000000
O       10.19351625      16.37509474       1.83987118      15.99940000       0.13946032       0.03491346       0.50513498      786        2      -1.20000000      -1.20000000
O        9.70295740       4.93841877      10.40916083      15.99940000      -0.67542832       0.84817267      -0.40115741      787        2      -1.20000000      -1.20000000
O       14.78745090       8.14046144       6.94170215      15.99940000       0.95825635       0.05036883       0.88020269      788        2      -1.20000000      -1.20000000
O        3.58760992      14.02590400      10.76074068      15.99940000      -0.64109319      -0.63596621       1.42042646      789        2      -1.20000000      -1.20000000
O        3.41100794       0.58893934      20.36224782      15.99940000      -0.44916944      -0.14128028       0.78306188      790        2      -1.20000000      -1.20000000
O       16.21768628      12.95938482      14.27291518      15.99940000      -0.48318725      -1.11634742      -0.08213473      791        2      -1.20000000      -1.20000000
O        8.11145945       2.31170891      14.66460555      15.99940000      -0.78098822      -0.32178046       1.10795129      792        2      -1.20000000      -1.20000000
O       19.01618068       3.88251903      11.16470193      15.99940000      -0.52058890       1.10288196       0.43210085      793        2      -1.20000000      -1.20000000
O       11.19331090       5.20762621       0.76908437      15.99940000       0.78510695       0.41554002       0.61488991      794        2      -1.20000000      -1.20000000
O       22.71889748       9.14847896      16.20084228      15.99940000       0.20593991      -1.02297866       0.55841939      795        2      -1.20000000      -1.20000000
O       13.68526789      14.15873236      21.25861069      15.99940000       0.36130934      -1.08271708       0.46705472      796        2      -1.20000000      -1.20000000
O       20.31801009      21.27896616       6.66557095      15.99940000       0.25021081      -1.41824097      -0.53185327      797        2      -1.20000000      -1.20000000
O        3.59763863      17.21360240       0.75639843      15.99940000       0.98407599       0.57241664      -0.99789469      798        2      -1.20000000      -1.20000000
O        3.04039561      15.72442812      18.82803255      15.99940000       0.07601600       0.21539767       0.16509590      799        2      -1.20000000      -1.20000000
O        5.61568766       7.89518975       1.14906976      15.99940000       0.47661837       0.82705182      -0.60962434      800        2      -1.20000000      -1.20000000
O        0.74563021      18.45056539      18.02785859      15.99940000      -1.01913379      -0.01799317       0.71225857      801        2      -1.20000000      -1.20000000
801
Lattice="21.85602874162945 0.0 0.0 0.6498993249349073 22.914375209596816 0.0 0.07681791872115538 -0.671740288458036 22.292430184670714" Properties=species:S:1:pos:R:3:masses:R:1:momenta:R:3:id:I:1:type:I:1:initial_charges:R:1:mmcharges:R:1 comment="LAMMPS data file via write_data, version 29 Aug 2024, timestep = 150001, units = metal" pbc="T T T"
Si       4.38697617      14.60026908      14.00702098      28.08600001       0.07297345       1.10682107       0.94890523        1        1       2.40000000       2.40000000
Si      15.95603505       8.56869817       9.05101412      28.08600001       0.12309387      -0.51737780       0.73519000        2        1       2.40000000       2.40000000
Si      13.85229330      -0.55195882      19.71451270      28.08600001       1.22116682      -0.06890059       0.26050982        3        1       2.40000000       2.40000000
Si       9.61024871      11.47081610       8.59906492      28.08600001       0.57959078      -1.11657732       1.61502690        4        1       2.40000000       2.40000000
Si      17.64908130      10.39954392      21.68642796      28.08600001       1.96299449       1.15591880      -0.24730592        5        1       2.40000000       2.40000000
Si       9.16481956       8.11274778       2.66068413      28.08600001       0.74903122       0.42834668      -0.52427557        6        1       2.40000000       2.40000000
Si      15.89530136      20.49310548      21.90890771      28.08600001       1.22628692       1.48853040       0.20317071        7        1       2.40000000       2.40000000
Si       9.46493737      22.05020267      10.08535300      28.08600001      -1.61143707      -0.55364778      -0.24572854        8        1       2.40000000       2.40000000
Si      13.61402272      10.99526036       1.10330807      28.08600001      -0.95170934      -2.17942457      -0.04229315        9        1       2.40000000       2.40000000
Si      21.23929988       0.75537890      11.50146970      28.08600001      -1.64803704      -0.70306479      -0.18961070       10        1       2.40000000       2.40000000
Si      20.90797381       9.84740577       3.78382038      28.08600001      -0.22326120       0.76200138      -0.69119822       11        1       2.40000000       2.40000000
Si      14.99030556       3.26973838      21.65444281      28.08600001       0.50168142      -0.05101374       0.46909170       12        1       2.40000000       2.40000000
Si       9.33077130       6.34643041       0.19186794      28.08600001      -0.51270588       0.51527051      -0.51916056       13        1       2.40000000       2.40000000
Si      20.25389097      14.54201340      12.19454136      28.08600001       0.51448530       0.27864921      -0.34760895       14        1       2.40000000       2.40000000
Si      13.85412038      15.44487873      15.48784874      28.08600001       0.69137121      -0.45711613      -1.06649518       15        1       2.40000000       2.40000000
Si       5.91846731       6.24851875      15.34207328      28.08600001      -0.75020637       0.48891088       0.82618729       16        1       2.40000000       2.40000000
Si       9.43315364      -0.06267922      13.09647011      28.08600001       0.51666147      -1.52743124      -0.44509393       17        1       2.40000000       2.40000000
Si       4.03438311       6.95710508       0.49946704      28.08600001       0.68622612      -0.19730483       0.81688182       18        1       2.40000000       2.40000000
Si      17.05953100       4.65483372       5.99280654      28.08600001       0.31795797       0.22736612       1.00590580       19        1       2.40000000       2.40000000
Si      12.91029230       6.50203692       2.79027543      28.08600001      -0.28820291       0.53315748       0.29528717       20        1       2.40000000       2.40000000
Si      17.30389816      14.97855243      11.17636449      28.08600001       0.99890232       0.00737205      -1.07036872       21        1       2.40000000       2.40000000
Si       6.61341412       5.26850694       0.56281250      28.08600001      -0.90605204      -0.58010743      -0.85719165       22        1       2.40000000       2.40000000
Si      13.47392316      21.78281966       5.25819142      28.08600001      -1.12155224      -0.73043027       0.46803025       23        1       2.40000000       2.40000000
Si       4.04465817      18.33221329      17.27003889      28.08600001      -0.61135654       1.89242094      -0.51544635       24        1       2.40000000       2.40000000
Si       4.02013943       9.13490470       2.80216168      28.08600001      -0.12006814      -0.01166532       0.49577282       25        1       2.40000000       2.40000000
Si      20.91756157      16.31421421      19.01181874      28.08600001       1.09193123      -0.16901117      -0.37741615       26        1       2.40000000       2.40000000
Si       5.25128225       2.81799723       6.74948785      28.08600001      -0.14184971       0.24314970      -1.02271237       27        1       2.40000000       2.40000000
Si      21.35257143       8.43622570       1.15044622      28.08600001       0.20384305      -1.04318494       0.33546417       28        1       2.40000000       2.40000000
Si      17.28404547      13.46763220       8.20232580      28.08600001       1.07006083      -0.67114702      -0.80052172       29        1       2.40000000       2.40000000
Si       9.21102181       6.31378511      17.65743326      28.08600001       0.97852745       1.29741526       0.82961852       30        1       2.40000000       2.40000000
Si       6.16200189       1.65485943      21.80457854      28.08600001       0.78493174      -1.05632348      -0.92390788       31        1       2.40000000       2.40000000
Si      12.87758686       9.15384480      12.49536002      28.08600001      -2.11912119      -1.40282493       1.20742371       32        1       2.40000000       2.40000000
Si      21.09756941       1.24500747      21.74088633      28.08600001      -1.46089831      -0.13500439       0.65869867       33        1       2.40000000       2.40000000
Si      12.85762111      13.86964072      19.88624720      28.08600001      -1.32481426      -0.61079832       0.06591623       34        1       2.40000000       2.40000000
Si       8.09943458      22.52975172       5.05655384      28.08600001       0.05017472      -0.61904423       1.24401417       35        1       2.40000000       2.40000000
Si      13.87401743      10.43756744      17.63410234      28.08600001       1.23399671      -0.88791358       0.21096502       36        1       2.40000000       2.40000000
Si      14.04488089      20.94759034      17.05480554      28.08600001      -0.13665133      -0.30583248       0.77299627       37        1       2.40000000       2.40000000
Si      17.18534063      -0.04732302       8.34913429      28.08600001      -0.33432334       0.18324487      -0.18488573       38        1       2.40000000       2.40000000
Si       1.05584482      10.26452737      10.23385212      28.08600001      -0.32452931      -0.41186207      -0.14741847       39        1       2.40000000       2.40000000
Si      21.25906826      21.15404525       5.30971826      28.08600001      -0.30526947       0.12308094       0.41563859       40        1       2.40000000       2.40000000
Si       6.18183879       5.69927542      18.47313739      28.08600001       0.59048976      -0.24181496      -0.83520232       41        1       2.40000000       2.40000000
Si      11.84073830       1.65747704       1.73261472      28.08600001      -0.29784504      -0.76439157      -0.66866741       42        1       2.40000000       2.40000000
Si      19.89764927       5.82109251      20.29790243      28.08600001      -1.25230962       1.01210796       0.49112973       43        1       2.40000000       2.40000000
Si      18.02455157       0.02306830       5.34549782      28.08600001       0.30766597       0.89085989      -0.25539660       44        1       2.40000000       2.40000000
Si      12.27011026      12.71739970       7.56637476      28.08600001      -0.21805875      -0.33188865      -0.43651840       45        1       2.40000000       2.40000000
Si       6.82569814       5.29050244       5.91132091      28.08600001      -0.24811512      -0.72314222      -0.61148452       46        1       2.40000000       2.40000000
Si       7.97126063      15.25615752       8.59889466      28.08600001      -0.44130073      -0.08764572      -0.84762333       47        1       2.40000000       2.40000000
Si      15.15605650      11.32072311       7.58025997      28.08600001      -0.55136761       0.91778321      -0.83582498       48        1       2.40000000       2.40000000
Si       2.76121592       1.85813410       8.21781021      28.08600001       0.29411077       0.47430180       1.94708162       49        1       2.40000000       2.40000000
Si      16.55479000       6.36930650      16.11374314      28.08600001      -1.06253252       1.18976464      -1.99067253       50        1       2.40000000       2.40000000
Si       5.62490533       1.75192257       3.86487651      28.08600001       0.20021700       1.77590541       0.11514312       51        1       2.40000000       2.40000000
Si      20.27738228      20.60921292      19.40438263      28.08600001      -0.27344097       0.73224171      -1.31232549       52        1       2.40000000       2.40000000
Si       1.10982857       7.72744958       8.41238036      28.08600001      -0.10540617      -0.55172480       0.31974677       53        1       2.40000000       2.40000000
Si      17.24098039       0.03378777       1.06603464      28.08600001       0.01977480       0.60618573       0.36783747       54        1       2.40000000       2.40000000
Si       3.40847155      20.72676349       0.33572692      28.08600001      -1.34193250       1.63330152       0.32963155       55        1       2.40000000       2.40000000
Si      20.45573888      14.52084063       0.35319958      28.08600001       0.05943516       0.30704567      -1.03749844       56        1       2.40000000       2.40000000
Si       3.43391451      15.82304482       6.34989217      28.08600001      -0.85882750      -0.87217182      -0.65067807       57        1       2.40000000       2.40000000
Si       3.59952588      20.49785143      19.50394880      28.08600001       0.28764643      -0.67779571       0.57136823       58        1       2.40000000       2.40000000
Si      21.88139046       5.74223596       0.26524942      28.08600001       0.36459094       0.65320708      -0.36572728       59        1       2.40000000       2.40000000
Si      17.97827519      19.75296433       8.36643960      28.08600001       1.41642892      -0.52967379       0.01937130       60        1       2.40000000       2.40000000
Si      17.79928556       4.45362263       8.84071305      28.08600001      -0.56170655       0.08589952      -0.05523772       61        1       2.40000000       2.40000000
Si      11.37604013      21.58083054      15.47867617      28.08600001      -0.04246886      -0.85400124      -1.28007830       62        1       2.40000000       2.40000000
Si      13.08640752      13.52617788      10.62121982      28.08600001       0.13448060      -1.11977663      -0.28327205       63        1       2.40000000       2.40000000
Si       3.07548850      17.72849613       0.93302719      28.08600001       1.08588443      -1.38635800       0.02898361       64        1       2.40000000       2.40000000
Si      11.07358830      16.89719695       4.62416140      28.08600001      -0.55190908       0.16125294      -0.46078531       65        1       2.40000000       2.40000000
Si      12.89005557      10.82526021      20.53408633      28.08600001      -0.84164300       0.14741957      -2.54337289       66        1       2.40000000       2.40000000
Si       1.47423199       5.20257991       4.60141281      28.08600001       0.56477939      -0.37791128      -1.13689922       67        1       2.40000000       2.40000000
Si       5.57516634      12.70959754      20.77512310      28.08600001      -1.34330889      -0.49421869      -0.33248625       68        1       2.40000000       2.40000000
Si      13.01372651      14.65816388       5.10466130      28.08600001      -0.00968633      -0.07942388       1.33237546       69        1       2.40000000       2.40000000
Si      17.79634505      10.54385695      12.41208484      28.08600001       0.45588700       0.22596512      -0.56026558       70        1       2.40000000       2.40000000
Si      14.35071136      13.74468154       2.56610540      28.08600001      -0.31011979      -0.20890915       0.22621604       71        1       2.40000000       2.40000000
Si       5.32659065      16.56273924       8.51984622      28.08600001       0.69626898      -1.70288853       0.92772851       72        1       2.40000000       2.40000000
Si       8.39634562      13.35388639      10.90638870      28.08600001      -1.14152897      -0.40673616      -0.11057111       73        1       2.40000000       2.40000000
Si      13.43756672      16.53888189      10.14230492      28.08600001      -0.41491696      -0.24081884       0.88460998       74        1       2.40000000       2.40000000
Si      18.19900607       7.39137567       5.03146941      28.08600001       1.31215765      -0.57037772      -0.74812832       75        1       2.40000000       2.40000000
Si       6.63431035      11.03198776      16.00282818      28.08600001      -0.21579580      -0.01801797      -1.62771671       76        1       2.40000000       2.40000000
Si       6.80487409      10.22151852       2.46518542      28.08600001      -1.60296979       0.36613557       0.46505127       77        1       2.40000000       2.40000000
Si       7.75841082      11.05644637      22.21034204      28.08600001       0.04091351      -1.22585313      -0.87876233       78        1       2.40000000       2.40000000
Si      18.85908340      16.95134356       3.95302772      28.08600001       0.77150028       1.13248928      -0.25285337       79        1       2.40000000       2.40000000
Si       2.41817445       4.54570400       1.73746719      28.08600001       0.16419963       0.19412332      -0.46612835       80        1       2.40000000       2.40000000
Si      19.68457367       5.79707448      12.35406442      28.08600001       0.21758532      -0.55651326       1.41171913       81        1       2.40000000       2.40000000
Si       6.92879463       2.65819507      19.00781020      28.08600001      -0.68069769       0.52546952      -0.54315537       82        1       2.40000000       2.40000000
Si       5.33138389      15.80722820      21.53634206      28.08600001       0.30843697      -0.25298296       1.51841759       83        1       2.40000000       2.40000000
Si       4.46860596      18.53479169      13.32106235      28.08600001      -0.39052846       1.29750100      -0.53333911       84        1       2.40000000       2.40000000
Si      10.19078060       2.74162184       8.14521614      28.08600001      -0.27256848       0.63126486       0.20612901       85        1       2.40000000       2.40000000
Si      11.57457629       7.44443547       7.03429294      28.08600001       0.64317460       0.83813207       0.38023222       86        1       2.40000000       2.40000000
Si       6.40536160      19.30061577      15.38270438      28.08600001       1.06285596      -0.57922701      -2.16371590       87        1       2.40000000       2.40000000
Si      11.28235633      18.15633449       1.85443568      28.08600001       0.29062924       0.88003823      -0.52646289       88        1       2.40000000       2.40000000
Si       8.32860935       2.83986201      13.18163399      28.08600001       0.95877682       0.29337446      -0.55943773       89        1       2.40000000       2.40000000
Si      12.55794179       2.98060047      11.61081095      28.08600001       0.10844367      -0.02752796      -0.13986784       90        1       2.40000000       2.40000000
Si       9.66607005       4.21990641      10.84576578      28.08600001       0.13670170      -0.48909827      -0.51956776       91        1       2.40000000       2.40000000
Si      21.10482317      13.71628527       9.51307378      28.08600001       0.87756222       1.10182850      -0.15179116       92        1       2.40000000       2.40000000
Si      13.82432357       7.66968582      16.72616382      28.08600001       1.14476130       0.29424125      -0.14237433       93        1       2.40000000       2.40000000
Si      12.34495075       0.74151357       9.33682924      28.08600001      -0.27140658       1.29772414      -0.60038969       94        1       2.40000000       2.40000000
Si      20.30065982       4.38274808      14.97481403      28.08600001      -1.70726624       1.53800830       1.61592365       95        1       2.40000000       2.40000000
Si      13.35093925      17.87811523      17.33070258      28.08600001      -1.73272525      -0.09829027       0.28824840       96        1       2.40000000       2.40000000
Si      18.68614606       8.10254985      14.32236507      28.08600001       0.94968404       0.56499776       1.37005212       97        1       2.40000000       2.40000000
Si       2.60110031      11.74084460       2.33344554      28.08600001       1.90908496       0.16183106       1.68451437       98        1       2.40000000       2.40000000
Si       8.85235261      17.81928746      12.34192931      28.08600001      -1.34834080      -1.18399557      -1.67142931       99        1       2.40000000       2.40000000
Si       6.38457448       0.47397966      16.90019462      28.08600001       0.88489738      -0.04734083      -0.64834898      100        1       2.40000000       2.40000000
Si      22.24707004      15.67002177      16.39788436      28.08600001       0.16835459       0.20454830      -0.75317554      101        1       2.40000000       2.40000000
Si      12.60873348      18.89602325       6.36934084      28.08600001       1.49735980       0.27009344      -0.01942398      102        1       2.40000000       2.40000000
Si       2.50150565      14.47506135      18.31544266      28.08600001      -0.15999441      -1.22963841       0.59604592      103        1       2.40000000       2.40000000
Si      12.31351027      15.27665078       0.67633141      28.08600001       0.23146642      -0.38014165      -0.61699967      104        1       2.40000000       2.40000000
Si      16.21206566      19.21671785      13.52318690      28.08600001      -0.66723856      -0.22642989       0.63515306      105        1       2.40000000       2.40000000
Si       5.37105157       3.38860459      13.88228261      28.08600001       0.71998622      -1.04208926       1.05327653      106        1       2.40000000       2.40000000
Si       2.41439470       1.18559177      11.18145459      28.08600001       0.16986837       0.66094211       1.82905127      107        1       2.40000000       2.40000000
Si      19.85643763       3.80326516       1.74141398      28.08600001      -0.70012987      -0.73628712      -1.11588436      108        1       2.40000000       2.40000000
Si       1.13612452      -0.08805246      15.60948342      28.08600001      -0.64334372       1.78613375      -0.45997728      109        1       2.40000000       2.40000000
Si      18.69439805       4.83057764      17.61328097      28.08600001       0.47754509       0.66313413      -0.72402427      110        1       2.40000000       2.40000000
Si       3.82743633      21.58536831       7.28449843      28.08600001       1.05156422       1.11194459      -0.92218526      111        1       2.40000000       2.40000000
Si       9.90879921      20.91941289      20.63363769      28.08600001       0.00200617      -0.50166162      -0.55103147      112        1       2.40000000       2.40000000
Si      13.25656247       8.81725996       4.85449859      28.08600001      -1.17758460       0.05635952       0.58900405      113        1       2.40000000       2.40000000
Si      16.29989996      10.11690542       2.06223904      28.08600001       0.60921718       0.37143687       0.72140019      114        1       2.40000000       2.40000000
Si       8.22000928       8.42957582      15.68504187      28.08600001      -0.60632534      -0.79221245      -0.02131845      115        1       2.40000000       2.40000000
Si      18.68197142       1.97199717      10.27570511      28.08600001       0.44305410      -1.18239598       0.08082534      116        1       2.40000000       2.40000000
Si      16.92649670      10.89026462      17.69560520      28.08600001       0.68848953      -0.58197524       0.32396172      117        1       2.40000000       2.40000000
Si       2.26789131      20.60473386      13.51429406      28.08600001      -0.11037792       0.71801547       0.88078470      118        1       2.40000000       2.40000000
Si       3.47832450       6.38936143      19.80586501      28.08600001      -0.38029610      -1.94317558      -0.89827240      119        1       2.40000000       2.40000000
Si      18.27103420      12.08010855      15.18604799      28.08600001       2.04149242      -0.48564928      -0.20795770      120        1       2.40000000       2.40000000
Si       7.19917600      17.42618004       3.79608403      28.08600001       0.30433279      -0.09739820       0.90439317      121        1       2.40000000       2.40000000
Si      18.35834756      17.43475906      14.94758770      28.08600001      -0.40397047      -0.56370920       0.09211875      122        1       2.40000000       2.40000000
Si      15.74657567      22.15821035      14.71527600      28.08600001      -0.94622668       0.41048942      -0.32106166      123        1       2.40000000       2.40000000
Si      13.40001147       5.88558996      22.08835064      28.08600001       0.51711209       0.96816548      -0.67673685      124        1       2.40000000       2.40000000
Si       9.79868210      17.88772862      21.38843079      28.08600001      -0.17384525      -0.73552928       0.27558101      125        1       2.40000000       2.40000000
Si      10.42460258      22.61613611       2.96870338      28.08600001      -0.09733620      -0.15621709       0.76745644      126        1       2.40000000       2.40000000
Si      14.80943548       1.86291145       1.72343841      28.08600001       0.50300885      -0.30452149       1.68000346      127        1       2.40000000       2.40000000
Si      17.20111133      18.03315139      10.88128688      28.08600001       1.06996755       0.54408073       1.01030948      128        1       2.40000000       2.40000000
Si      10.30113712      17.02034408       9.59339585      28.08600001       2.13244815      -0.71831551      -0.87038330      129        1       2.40000000       2.40000000
Si      11.08019692       5.53003445      19.96856488      28.08600001       1.91510458       0.81126408       1.10306727      130        1       2.40000000       2.40000000
Si      17.57606646       2.02507204      17.98138344      28.08600001      -0.28743429       0.02862300      -1.55473092      131        1       2.40000000       2.40000000
Si      17.95552131      16.78174435      18.02871700      28.08600001       2.02310232      -0.34526592      -0.48001855      132        1       2.40000000       2.40000000
Si       0.60558968       2.53866655       5.95533851      28.08600001      -0.10048543       0.01201120       0.95838346      133        1       2.40000000       2.40000000
Si      14.44509793       0.55578083       6.99990688      28.08600001      -0.00184793       2.24470323      -0.20337844      134        1       2.40000000       2.40000000
Si      20.30939243       8.97768881      20.95099229      28.08600001      -1.15370057       0.74128487      -2.18115107      135        1       2.40000000       2.40000000
Si      17.31671992      17.88876193      20.77578253      28.08600001       0.01352426       0.71256515      -0.58739691      136        1       2.40000000       2.40000000
Si      13.06216196       7.72581067       9.75632289      28.08600001       0.13459578       0.43969876      -0.27430982      137        1       2.40000000       2.40000000
Si      22.12313403      10.60464603      18.97951974      28.08600001      -0.43011433       1.12855739       1.12332003      138        1       2.40000000       2.40000000
Si      20.06920546      18.61158372      10.27642936      28.08600001      -0.17943838       0.40839593       1.78386604      139        1       2.40000000       2.40000000
Si       4.10465475       8.50937818       7.86950959      28.08600001       0.22485146      -0.87379431       0.01976251      140        1       2.40000000       2.40000000
Si       8.56013312       7.09708620      10.66143539      28.08600001       0.11780208      -1.08168180      -0.52733841      141        1       2.40000000       2.40000000
Si      11.52194309      11.93448526      12.83842817      28.08600001      -0.64332197       1.13137836       0.06756330      142        1       2.40000000       2.40000000
Si       7.47654356      10.33601007       6.73047913      28.08600001      -0.98363456       0.59181297      -0.65363423      143        1       2.40000000       2.40000000
Si       9.47806947      13.98301872       0.90835468      28.08600001      -0.40697826      -0.70955726      -0.97227472      144        1       2.40000000       2.40000000
Si       3.31004450       7.93195017      14.88279259      28.08600001       0.29704429       0.32223482       0.30037676      145        1       2.40000000       2.40000000
Si      14.54950996       3.04363975       4.82467788      28.08600001      -1.80928491       1.23590130      -0.03738302      146        1       2.40000000       2.40000000
Si      22.21183239      20.68212824      10.98442544      28.08600001       1.39984005      -0.14035054      -0.06681544      147        1       2.40000000       2.40000000
Si       3.67111932       1.74959396       1.25692578      28.08600001      -0.24040944       2.19474568      -0.20172109      148        1       2.40000000       2.40000000
Si      14.58958976       2.25992126      18.58978694      28.08600001       0.26972915      -0.52437727      -0.30669945      149        1       2.40000000       2.40000000
Si      10.12247666       2.67227919      19.24504363      28.08600001      -0.15788443       1.54309296      -0.78157120      150        1       2.40000000       2.40000000
Si       2.44902036      12.86844604       5.30924055      28.08600001      -0.12554545       0.43431333      -0.33286330      151        1       2.40000000       2.40000000
Si       2.73249692       3.87186151      12.64588525      28.08600001       0.83918471      -0.45395983      -0.29415904      152        1       2.40000000       2.40000000
Si       7.17817347      19.97545855      10.71121856      28.08600001      -1.43516104      -0.41112832       0.24375586      153        1       2.40000000       2.40000000
Si      16.72588405       4.84622077      11.74044690      28.08600001      -0.05333723       0.95587332      -0.10651715      154        1       2.40000000       2.40000000
Si       8.28046210      22.87436944       0.62730290      28.08600001      -0.16921248      -0.02350331       0.55338733      155        1       2.40000000       2.40000000
Si       2.65535097      12.47314811      11.51061520      28.08600001       0.27484281       0.75066928      -0.12019295      156        1       2.40000000       2.40000000
Si      16.03454815       3.57666776      14.66144059      28.08600001      -0.69449453       0.53263042       0.14043792      157        1       2.40000000       2.40000000
Si      11.94769002       2.75532770      16.77482973      28.08600001       0.98354394       0.01881897      -0.87822247      158        1       2.40000000       2.40000000
Si       1.22370021       1.79206157      19.47107389      28.08600001      -0.23985707      -0.24868511      -0.65465500      159        1       2.40000000       2.40000000
Si       9.09016903      21.35767372      17.67765340      28.08600001      -0.77097934       0.27242149      -0.11676041      160        1       2.40000000       2.40000000
Si      20.76501659      13.23267284      19.75336527      28.08600001       0.21654744      -0.61123286      -0.55986224      161        1       2.40000000       2.40000000
Si       2.44803789       4.07246431      17.87011969      28.08600001       0.90522600      -0.51537747      -0.39266272      162        1       2.40000000       2.40000000
Si       5.97993580      21.10410006       1.64982957      28.08600001      -1.97114752       0.14859732      -0.20452574      163        1       2.40000000       2.40000000
Si      16.88143124      14.87194672      15.84064550      28.08600001      -0.68143156      -0.29581884       0.17080843      164        1       2.40000000       2.40000000
Si       4.51393660      11.33097512       7.05515863      28.08600001      -0.66508387      -0.43899017       0.40378298      165        1       2.40000000       2.40000000
Si       7.74265336       3.93669471       3.20365095      28.08600001      -0.81921769       0.05216232       0.55986353      166        1       2.40000000       2.40000000
Si      21.21104729       7.35373244       5.72081257      28.08600001       0.42560280       0.29838125      -0.65234190      167        1       2.40000000       2.40000000
Si       8.52278344       7.43932295       7.39825807      28.08600001      -1.57773677      -2.54718174      -0.50365076      168        1       2.40000000       2.40000000
Si      19.90514120       9.65100477      10.31282257      28.08600001       0.24769556       2.12324958       0.84075712      169        1       2.40000000       2.40000000
Si       2.88213476       8.27064292      11.97123816      28.08600001       2.40930202       0.94920987       0.08376485      170        1       2.40000000       2.40000000
Si       0.90508461       6.10205374      11.21975689      28.08600001       0.17157715      -0.80570929      -0.64899116      171        1       2.40000000       2.40000000
Si      10.16853295      12.94009399      18.19023698      28.08600001      -1.09233838       0.83547184       0.29546092      172        1       2.40000000       2.40000000
Si      16.13825026      18.31335008       3.39511483      28.08600001       0.06101505       1.24493013      -1.02984308      173        1       2.40000000       2.40000000
Si       9.95929389      10.34109853      19.95535771      28.08600001      -0.51807373      -0.65412892      -0.00906164      174        1       2.40000000       2.40000000
Si      21.28687352      12.46039335       5.32347137      28.08600001       0.54605228      -1.43896010       1.00933864      175        1       2.40000000       2.40000000
Si       8.74085687      11.77000348       4.15545484      28.08600001       1.29033253       0.80429546       0.30971692      176        1       2.40000000       2.40000000
Si       6.86355939      12.81649939      13.50338184      28.08600001       0.38522574      -0.47016250       0.66707402      177        1       2.40000000       2.40000000
Si       7.26089260      22.09643917      14.27333169      28.08600001       0.34058615       1.05889767      -0.08902660      178        1       2.40000000       2.40000000
Si       7.23874323      13.47717292      18.06672449      28.08600001      -0.43320063       0.30162912      -0.02442230      179        1       2.40000000       2.40000000
Si       7.13238645      18.10312757       0.83016379      28.08600001       1.37975774       0.06448735       2.01570650      180        1       2.40000000       2.40000000
Si      13.62687729      17.33301154      13.13656068      28.08600001      -1.15877765       0.38544640      -0.11828288      181        1       2.40000000       2.40000000
Si      11.24814889      19.31702475      13.40708924      28.08600001      -0.41823050       0.58244174       0.22161508      182        1       2.40000000       2.40000000
Si       1.13222901      15.22693328      11.15299994      28.08600001      -1.16144470       1.10531361      -0.22831465      183        1       2.40000000       2.40000000
Si       8.06750544      18.53984438      17.63704265      28.08600001      -0.14621821      -0.36909100      -0.17182494      184        1       2.40000000       2.40000000
Si      17.79744181       5.16357406       0.12543695      28.08600001       0.50930003       0.35940204       0.06023432      185        1       2.40000000       2.40000000
Si       5.11052813      15.39659316      16.88110523      28.08600001       1.00865479      -0.26028112       1.40086907      186        1       2.40000000       2.40000000
Si       3.94523387      16.38557404      11.39298334      28.08600001      -0.12518238       0.84499827       0.04502883      187        1       2.40000000       2.40000000
Si      17.70197110      16.10509155       6.72809908      28.08600001       0.59800796      -0.08331423       0.36232227      188        1       2.40000000       2.40000000
Si       8.69069107      14.82837560       4.04697034      28.08600001      -0.28459382       0.55408056      -0.54108338      189        1       2.40000000       2.40000000
Si      17.62442467      12.85240879      19.79990773      28.08600001      -0.38589675      -1.77173096       0.18788665      190        1       2.40000000       2.40000000
Si      21.83330461      17.37846924       1.10720011      28.08600001      -0.27676000       0.17122094       1.67984519      191        1       2.40000000       2.40000000
Si      10.02187159       4.71736863      15.14418191      28.08600001      -1.10636310      -0.30368636       0.38517638      192        1       2.40000000       2.40000000
Si       3.76104107       1.88091947      16.15945939      28.08600001       0.94236144      -0.25289845       0.94581605      193        1       2.40000000       2.40000000
Si      11.35444122      10.51704118       3.19699571      28.08600001       0.38190696       0.83718377       0.50063413      194        1       2.40000000       2.40000000
Si       2.01102207      17.89284997      15.10302092      28.08600001      -0.59938837       0.29551779      -0.01703116      195        1       2.40000000       2.40000000
Si      11.16566790      13.88763390      15.29409433      28.08600001      -0.03674238      -0.25163652      -1.22891771      196        1       2.40000000       2.40000000
Si       3.05612366      11.50848033      19.40731202      28.08600001      -0.93037444       0.08997439      -0.43326875      197        1       2.40000000       2.40000000
Si       5.62151360       8.13249486      10.60013516      28.08600001       0.51679469      -0.25662290       1.01118690      198        1       2.40000000       2.40000000
Si      14.20710373      18.94583571       1.10031173      28.08600001       0.15265822      -1.72079278       0.17782874      199        1       2.40000000       2.40000000
Si      19.75322050      14.05968147       3.28581621      28.08600001      -1.65873048      -2.16576313      -0.08835716      200        1       2.40000000       2.40000000
Si       0.93704252      20.34231861       7.86887389      28.08600001       1.08882039       0.04978236      -0.04365768      201        1       2.40000000       2.40000000
Si      12.14137409       6.73148407      14.23730199      28.08600001      -1.66715333      -0.08672589       1.38445095      202        1       2.40000000       2.40000000
Si       0.83158469      -0.02172750       1.05259078      28.08600001       0.37493956       0.14317908       0.20321963      203        1       2.40000000       2.40000000
Si      10.80627959       4.47163455       2.23074476      28.08600001       0.68067652      -0.10834510      -0.14285883      204        1       2.40000000       2.40000000
Si      20.49853233       1.36811759      14.55487124      28.08600001      -0.42230987      -0.36314943       0.88284558      205        1       2.40000000       2.40000000
Si      10.31558525      19.70158921       8.09490556      28.08600001      -0.70192305      -0.20442307       0.56327613      206        1       2.40000000       2.40000000
Si      16.28509356       9.84332729       5.06958129      28.08600001      -0.20562925       0.05704860      -0.79002172      207        1       2.40000000       2.40000000
Si       3.55673945      10.51337268      16.49792209      28.08600001       0.15060646      -1.44856714      -1.19772327      208        1       2.40000000       2.40000000
Si       8.92733637      15.02745378      13.48436717      28.08600001      -0.06096687      -0.13580093       0.31520668      209        1       2.40000000       2.40000000
Si       4.27900113       6.90364683       5.09920580      28.08600001      -1.68099213      -0.83974913      -0.41892256      210        1       2.40000000       2.40000000
Si      19.41141872       2.85294888       4.84605543      28.08600001       0.37224178      -0.66588523       0.62037693      211        1       2.40000000       2.40000000
Si      17.54031184      14.92220076      21.85161611      28.08600001      -0.25052062       0.76113711       0.83862814      212        1       2.40000000       2.40000000
Si      21.55838340      18.37105560       4.18394038      28.08600001      -0.14476972      -1.11866846      -0.63869717      213        1       2.40000000       2.40000000
Si      12.47046501       4.40081996       6.70347605      28.08600001      -0.51412897       0.49341408       0.50631542      214        1       2.40000000       2.40000000
Si      20.23053687      16.36975432       8.41238407      28.08600001       0.12128834      -0.42922415      -0.65784894      215        1       2.40000000       2.40000000
Si       8.02040379      19.63269707       5.78949103      28.08600001       0.11363394       1.26314301      -1.84973488      216        1       2.40000000       2.40000000
Si      14.97181525      16.91803503       5.86553610      28.08600001      -0.36159891      -0.23940384       0.84516457      217        1       2.40000000       2.40000000
Si       1.01804377      21.89006966      18.36700257      28.08600001       0.54041848       0.32555837       0.21197233      218        1       2.40000000       2.40000000
Si       5.82587420      19.46706306       8.04253544      28.08600001      -1.15233536      -0.82170576       0.34171920      219        1       2.40000000       2.40000000
Si       3.94827432      20.93650123       4.17621963      28.08600001      -0.83734260       0.22076564      -0.04136337      220        1       2.40000000       2.40000000
Si       5.52907365      22.33561863      11.70085190      28.08600001       0.75478002      -2.13970327      -0.47161271      221        1       2.40000000       2.40000000
Si       3.98255376      17.78760074       3.92457422      28.08600001      -0.27402152      -0.47056625       0.71379354      222        1       2.40000000       2.40000000
Si      18.21969140       7.61767138       1.93698720      28.08600001      -0.71220828       1.17329640      -0.12849307      223        1       2.40000000       2.40000000
Si      17.98889509      -0.06644905      15.55617024      28.08600001      -1.80651074      -0.18474163       0.88072315      224        1       2.40000000       2.40000000
Si       1.51089119       5.38473952      15.26210041      28.08600001       0.72423339       1.17122134       0.50771466      225        1       2.40000000       2.40000000
Si       0.81701270      17.29143827       6.91404576      28.08600001       0.43890453      -0.24808415       0.07716121      226        1       2.40000000       2.40000000
Si       7.73208899       0.97086460       7.80311457      28.08600001       0.51456870       0.94547330      -0.07118652      227        1       2.40000000       2.40000000
Si      13.91795996       5.58649905      11.86975947      28.08600001      -0.76488997      -1.07909363       0.42945238      228        1       2.40000000       2.40000000
Si      20.99489067      13.29180365      14.88188167      28.08600001      -1.83301422       2.12028340       0.64043494      229        1       2.40000000       2.40000000
Si      11.12856568       0.28199134      21.03062799      28.08600001       0.31851764       0.12424521      -0.95609103      230        1       2.40000000       2.40000000
Si      13.37543104       1.70093685      14.37602966      28.08600001       0.71140664       0.93346125      -1.33183959      231        1       2.40000000       2.40000000
Si       0.90296187       0.12047508       4.03104293      28.08600001      -0.46624946      -0.07607847       0.62043066      232        1       2.40000000       2.40000000
Si       2.19958775      12.54461762      14.46489719      28.08600001      -0.69869390      -1.09461778       0.50331856      233        1       2.40000000       2.40000000
Si      19.76294789      11.58130774       7.91330028      28.08600001       0.71362469       0.51274962      -0.29866011      234        1       2.40000000       2.40000000
Si      15.59049706      12.49992325      12.11835008      28.08600001       0.15670732       0.33009475      -0.92386726      235        1       2.40000000       2.40000000
Si      18.30397994       0.37034818      20.54435719      28.08600001      -2.52126479       0.76954706       0.15963028      236        1       2.40000000       2.40000000
Si      20.41498079      18.36053311      21.26132486      28.08600001      -0.05133053       0.77711402      -1.45712145      237        1       2.40000000       2.40000000
Li      21.28600546      16.99908983      13.75944381       6.94100000       0.65423102      -0.11156384      -0.14661545      238        3       0.60000000       0.60000000
Li      18.03684868       7.44527968      10.24626083       6.94100000      -0.90383302      -0.44403386       0.93056988      239        3       0.60000000       0.60000000
Li      15.94643245       7.77431841      21.80266771       6.94100000       0.09084529       0.14929349      -0.08304167      240        3       0.60000000       0.60000000
Li      16.21222604       7.93849858      12.46765174       6.94100000      -0.51294123       0.03044542       0.24158063      241        3       0.60000000       0.60000000
Li      10.53664736      16.91623772      18.48146586       6.94100000      -0.16682937       0.65686963       0.21948379      242        3       0.60000000       0.60000000
Li       5.03733642       0.57724619       8.85441433       6.94100000      -0.24446942      -0.75202069      -0.45585224      243        3       0.60000000       0.60000000
Li       8.89510080       7.64304032      20.02589376       6.94100000       0.32822303       0.34346922       0.28076535      244        3       0.60000000       0.60000000
Li       7.48527102      16.31397487      19.37323599       6.94100000      -0.23890692      -0.19119990      -0.13319914      245        3       0.60000000       0.60000000
Li      19.44294302       9.54281771      17.20328193       6.94100000       0.65031702       0.06653053      -0.32899378      246        3       0.60000000       0.60000000
Li      12.48848893      21.49212522      11.40907999       6.94100000      -0.23057910      -0.25631712       0.20501798      247        3       0.60000000       0.60000000
Li      16.31583587      20.72870191       5.55368706       6.94100000      -0.01969449      -1.02492129       0.39612929      248        3       0.60000000       0.60000000
Li      11.62728901       8.06372575      18.46350388       6.94100000       0.19487888       0.02413380      -1.02448547      249        3       0.60000000       0.60000000
Li      13.96624340       6.80590850      19.79145893       6.94100000      -0.71760273      -0.44046726      -0.05138544      250        3       0.60000000       0.60000000
Li      16.98725028      13.28532686       2.26709722       6.94100000       0.53450946       0.64579214      -0.46560178      251        3       0.60000000       0.60000000
Li       8.85791085      10.71209707      13.65405856       6.94100000       0.77995771      -0.23024972      -0.54894820      252        3       0.60000000       0.60000000
Li      20.66471690      20.76350138      16.66152040       6.94100000       0.11493477       0.48604574      -0.61155843      253        3       0.60000000       0.60000000
Li      18.33751256      11.36350266       2.96012844       6.94100000       0.82171812       0.42165547       0.01660188      254        3       0.60000000       0.60000000
Li      16.20391307      22.09088798       3.33004430       6.94100000      -0.25810004      -0.55008193      -0.18470970      255        3       0.60000000       0.60000000
Li      21.57779793      11.89971447       1.52287429       6.94100000      -0.03251645       0.22020044       0.18571954      256        3       0.60000000       0.60000000
Li      17.15832135      13.59891955       4.58705148       6.94100000      -0.06346265      -0.90278918       0.49398247      257        3       0.60000000       0.60000000
Li      18.14151018       2.38512825      13.39177185       6.94100000      -0.37202747       0.18023876       0.03242982      258        3       0.60000000       0.60000000
Li       5.98797076      13.98495285       6.96692300       6.94100000      -0.43103440       0.56864227       0.13615755      259        3       0.60000000       0.60000000
Li      10.66212677      18.65536241      16.26874858       6.94100000       0.18093052      -0.36597675       0.55632291      260        3       0.60000000       0.60000000
Li       6.99401978       1.61669269      10.76250034       6.94100000       1.13791531       0.20417448      -0.50743076      261        3       0.60000000       0.60000000
Li      15.72031341       5.52139479       3.69809449       6.94100000       0.28166233       0.27017686       0.17429262      262        3       0.60000000       0.60000000
Li      18.56444389      19.87448115      17.03141307       6.94100000       0.32746043      -0.27527143       0.31070527      263        3       0.60000000       0.60000000
Li      20.41837619       6.49863746       9.35648239       6.94100000      -0.11217291      -0.61702308       0.18372383      264        3       0.60000000       0.60000000
Li      18.66115753       7.23536909       7.99405933       6.94100000      -0.43228761       0.92403582      -0.18937676      265        3       0.60000000       0.60000000
Li      12.67459894      16.78178894      20.47857238       6.94100000       0.03374437      -0.22668168       0.17988862      266        3       0.60000000       0.60000000
Li      14.05382922      21.91965771       2.08384263       6.94100000      -0.03656530      -0.10949550      -1.10583764      267        3       0.60000000       0.60000000
Li      20.10949188      -0.00573653       2.47369848       6.94100000       0.01167348       0.39633599       0.12843258      268        3       0.60000000       0.60000000
Li      21.76545550       9.37322197      15.89277394       6.94100000       0.06175540      -0.64154636      -0.22289974      269        3       0.60000000       0.60000000
Li      10.52295165       8.51324464       9.79284536       6.94100000      -0.47712717       0.19580261       1.02801153      270        3       0.60000000       0.60000000
Li      14.83876033       4.19279574       8.91810294       6.94100000       0.02369183       0.35382290      -0.38461095      271        3       0.60000000       0.60000000
Li       6.24644338      20.82271088      18.78141441       6.94100000       0.14761478      -0.17428809      -0.46289613      272        3       0.60000000       0.60000000
Li      15.69969173      17.80030007       8.31906269       6.94100000       0.09498769      -0.15741368      -0.06231036      273        3       0.60000000       0.60000000
Li      17.08847239       8.42723982      19.30666084       6.94100000       0.15580367      -0.77894563       0.50468158      274        3       0.60000000       0.60000000
Li       4.92666994      13.23905737       9.63552380       6.94100000      -0.77000356       0.16545040      -0.23248986      275        3       0.60000000       0.60000000
Li      10.37982940       6.14755445       4.75434700       6.94100000       0.06823586      -0.32096763       0.50734199      276        3       0.60000000       0.60000000
Li       9.67360411      10.28363077      11.10078392       6.94100000      -0.21007707      -0.11866991      -0.95431173      277        3       0.60000000       0.60000000
Li       4.15656508       0.36526491      20.13175293       6.94100000       0.22116613      -0.37418978       0.43282972      278        3       0.60000000       0.60000000
Li      10.91779206       1.24683199       5.36142506       6.94100000       1.00349644       0.10653183       0.60849661      279        3       0.60000000       0.60000000
Li      13.05382641      20.88054323       8.55869887       6.94100000      -0.68511466      -0.51596445      -0.35121588      280        3       0.60000000       0.60000000
Li      14.99518995      16.05659827      18.56186920       6.94100000      -0.18385192      -0.42532197      -0.95397141      281        3       0.60000000       0.60000000
Li       1.35348403      10.27537601      21.82408797       6.94100000      -0.59165438      -0.00110223       0.01896011      282        3       0.60000000       0.60000000
Li       9.88983574       8.43770034      13.11755419       6.94100000       0.28689515       0.24052915       0.01602146      283        3       0.60000000       0.60000000
Li       5.19993810      11.20196632      11.51062037       6.94100000      -0.84791495       0.32699824       0.75774364      284        3       0.60000000       0.60000000
Li      12.27269281      19.93675075       3.49604881       6.94100000       0.33483419      -0.52598758      -0.18574534      285        3       0.60000000       0.60000000
Li      14.61122549      18.06190755      20.38691238       6.94100000       0.33388571       1.08326253       0.72469297      286        3       0.60000000       0.60000000
Li      16.35607490      15.66808472       2.19548306       6.94100000      -0.50504695       0.18329671       0.08993503      287        3       0.60000000       0.60000000
Li      15.24608879       9.83728151      11.33749019       6.94100000       0.60807515      -0.27852408      -0.08000818      288        3       0.60000000       0.60000000
Li       5.06207243      13.34362305       1.15063307       6.94100000       0.42149787       0.20623006       0.23387415      289        3       0.60000000       0.60000000
Li       9.27652040      13.53093202       6.66667855       6.94100000       0.15864945       0.53789643       0.28612161      290        3       0.60000000       0.60000000
Li      18.28068201      20.12856875       5.07714291       6.94100000      -0.59565448       0.19351728      -0.41685779      291        3       0.60000000       0.60000000
Li      14.01303876      12.05885330      15.00134625       6.94100000      -0.17632941       0.19374808       0.05280034      292        3       0.60000000       0.60000000
Li       9.80804015      14.97522132      20.65641219       6.94100000       0.11267676      -0.24378278      -0.17846233      293        3       0.60000000       0.60000000
Li      14.29752412      13.48410665      17.59385792       6.94100000       0.12713370       0.19055293      -0.57967202      294        3       0.60000000       0.60000000
Li       1.92761857      16.56230332      20.90058198       6.94100000       0.64298574      -0.00019141       0.20610813      295        3       0.60000000       0.60000000
Li       1.90650785       8.23555318      17.81602233       6.94100000      -0.34330482      -0.17280110      -0.31789367      296        3       0.60000000       0.60000000
Li       5.81802948      18.04832433      19.40674199       6.94100000       0.08015523       0.12472763       0.12383930      297        3       0.60000000       0.60000000
O        8.83091959       2.04749033       7.46920214      15.99940000      -1.15302303       0.02496551       0.58111536      298        2      -1.20000000      -1.20000000
O       16.45652835      13.87699460      11.96141511      15.99940000      -1.50425669       1.13337432       0.26767320      299        2      -1.20000000      -1.20000000
O       16.94602735       8.69157950       1.99007034      15.99940000       0.17551960       0.27229336       0.48363821      300        2      -1.20000000      -1.20000000
O       17.55223771      18.66888394      14.32063763      15.99940000       0.55180993       0.65330084       0.30027799      301        2      -1.20000000      -1.20000000
O       18.16684476       5.69685121      11.76783739      15.99940000       0.67219893       0.31879267       0.26429349      302        2      -1.20000000      -1.20000000
O        1.48669376      19.40282975      14.44493094      15.99940000      -0.10585816      -1.04630736       0.50541459      303        2      -1.20000000      -1.20000000
O       18.52792381       3.94594623       5.63074392      15.99940000      -0.28414832      -0.40966552       0.39043305      304        2      -1.20000000      -1.20000000
O        8.66617542      13.39224513       4.61811849      15.99940000       0.33338476      -0.29309330       0.23886785      305        2      -1.20000000      -1.20000000
O       19.16187257      12.98034123      19.43824657      15.99940000      -0.96516515      -0.59815522      -0.00144070      306        2      -1.20000000      -1.20000000
O       12.57407044       2.31363834      13.13146652      15.99940000      -0.37383738       0.93757903       0.60707444      307        2      -1.20000000      -1.20000000
O        2.95609286       5.86184177       5.14699156      15.99940000       0.41365070      -0.15414872       0.89187550      308        2      -1.20000000      -1.20000000
O       19.09674566       0.70270256      14.49967579      15.99940000       0.59950395      -1.37587701       0.78466832      309        2      -1.20000000      -1.20000000
O        8.04376187      20.99731326       4.78331759      15.99940000      -0.80022620       0.99529829       0.50554928      310        2      -1.20000000      -1.20000000
O       21.07036897       9.65997849      19.70393049      15.99940000       0.52816187      -0.81256352      -0.71563448      311        2      -1.20000000      -1.20000000
O        2.34306302      15.58756129      19.42095736      15.99940000       0.70151291      -0.34647564       1.12152730      312        2      -1.20000000      -1.20000000
O       19.21487418      14.58015093      21.95375292      15.99940000      -0.21539696      -0.03755281       0.12390692      313        2      -1.20000000      -1.20000000
O       21.77421958      -0.21196687      22.21047244      15.99940000       0.81273351      -0.35894962       0.45711589      314        2      -1.20000000      -1.20000000
O        3.00302336      14.02028510      14.62557287      15.99940000       0.20229779       0.88471890      -0.56686649      315        2      -1.20000000      -1.20000000
O       17.29002608      22.51227490       4.93708095      15.99940000      -0.14912120       1.04298084       0.50196761      316        2      -1.20000000      -1.20000000
O        0.89407350       0.79403316      10.99582112      15.99940000       0.37502297      -0.57122732       1.25480436      317        2      -1.20000000      -1.20000000
O       17.67756834       7.00843849      15.05677324      15.99940000       0.91155249      -0.35171169      -0.21101046      318        2      -1.20000000      -1.20000000
O       14.35856546      12.58132003      10.88633299      15.99940000      -0.39111595       0.55012045      -0.34936437      319        2      -1.20000000      -1.20000000
O       11.71429512      20.09537170      12.15799746      15.99940000      -0.29090840      -0.14698800      -0.43856981      320        2      -1.20000000      -1.20000000
O       21.21841805      19.39862649      11.04048649      15.99940000      -0.38816417       0.09676214       0.40541669      321        2      -1.20000000      -1.20000000
O       15.25777862      14.51999046      15.81144343      15.99940000      -0.98531945      -0.40807217       0.58987808      322        2      -1.20000000      -1.20000000
O       17.28831643      11.79504899      21.02484387      15.99940000      -0.83491316       0.37914291       0.41177065      323        2      -1.20000000      -1.20000000
O       20.14820560      11.81675715       6.31738002      15.99940000      -0.60021254      -0.12852778      -0.70686243      324        2      -1.20000000      -1.20000000
O        3.30968580       6.34144819      21.46759561      15.99940000      -1.39665573       0.21087029       0.14668142      325        2      -1.20000000      -1.20000000
O       11.27770893      13.71846192      19.23723093      15.99940000      -0.30381625       0.39395428       0.15634936      326        2      -1.20000000      -1.20000000
O        1.30402406       4.82091363       0.56372526      15.99940000      -0.03441124      -0.12239361      -0.01460137      327        2      -1.20000000      -1.20000000
O       19.45650368       9.98131600       3.25154199      15.99940000      -0.92312303      -0.42440935      -1.06134117      328        2      -1.20000000      -1.20000000
O       12.75211617      14.71181745      21.31681318      15.99940000       1.60064049       0.21434856      -0.67929591      329        2      -1.20000000      -1.20000000
O       11.93118887       7.52958822       8.63576259      15.99940000      -0.27006021       0.58943734      -0.46479091      330        2      -1.20000000      -1.20000000
O        7.78575273       8.98250394       2.85522551      15.99940000       0.00874444       0.49986358      -0.46389887      331        2      -1.20000000      -1.20000000
O       12.57292026      10.67221588      12.80206306      15.99940000       1.28343447       1.04907757       1.48141015      332        2      -1.20000000      -1.20000000
O       21.00097477      12.93408979      21.37703686      15.99940000      -0.41624775       0.13921655      -0.08188422      333        2      -1.20000000      -1.20000000
O       17.31876467      16.59636429      21.73122174      15.99940000      -0.43412283       0.35201468       0.72061722      334        2      -1.20000000      -1.20000000
O       21.45403462      10.09139700      10.95199660      15.99940000      -0.90821539       0.62868825       0.94988651      335        2      -1.20000000      -1.20000000
O        1.63364746       7.20113751      12.11706614      15.99940000       0.10132697      -0.60714136      -0.19185279      336        2      -1.20000000      -1.20000000
O        4.47593687      15.40465207      12.63534351      15.99940000      -0.53988446      -1.27156174      -0.06441740      337        2      -1.20000000      -1.20000000
O        6.95964339       7.22696133      10.86559814      15.99940000      -0.50378660       0.52191763       0.90308801      338        2      -1.20000000      -1.20000000
O        2.09032196      21.46613588       0.74782766      15.99940000       2.03014388       0.32114855      -0.44703801      339        2      -1.20000000      -1.20000000
O       17.88784977       0.65650065       9.60148621      15.99940000       0.16293418      -0.44789099       0.46093840      340        2      -1.20000000      -1.20000000
O        6.99822447       5.01736559       2.16325639      15.99940000      -0.18803673       0.73483933       0.59946160      341        2      -1.20000000      -1.20000000
O       19.27670997      16.30333026      18.75519695      15.99940000       0.16353479       0.19958482       0.94797555      342        2      -1.20000000      -1.20000000
O        6.59527979      19.64819165       6.60675726      15.99940000      -0.11567213       0.21407400      -1.16316913      343        2      -1.20000000      -1.20000000
O        8.65798721       3.21725710      11.56279950      15.99940000       0.68912293      -0.90751758       0.04310849      344        2      -1.20000000      -1.20000000
O       12.64575100       0.27601998      20.53638647      15.99940000       1.11072559       0.82128038      -0.23363797      345        2      -1.20000000      -1.20000000
O       15.41525733      18.41580215       1.92820916      15.99940000      -0.53948517      -0.56867215       0.80637738      346        2      -1.20000000      -1.20000000
O        6.90641011      19.59152434       9.18335321      15.99940000       0.54508273       0.05127726       0.01051734      347        2      -1.20000000      -1.20000000
O       18.60849383       7.12407967       3.47093418      15.99940000       0.51239293       0.44823325       0.27803779      348        2      -1.20000000      -1.20000000
O        7.11779908      10.51857425       0.84167297      15.99940000      -0.40453580      -0.62179951       0.17009764      349        2      -1.20000000      -1.20000000
O        7.57517618       4.36288051       4.77418731      15.99940000       0.90906982       0.13443302      -0.13903543      350        2      -1.20000000      -1.20000000
O        6.54992745      14.82914801      17.42879313      15.99940000       0.15799465      -0.44021714      -0.67866100      351        2      -1.20000000      -1.20000000
O        5.91709672      20.80192627      11.28123194      15.99940000       0.29612682       1.52267546      -0.15127554      352        2      -1.20000000      -1.20000000
O       20.67832330      17.25783035       9.67542983      15.99940000       0.18433764       0.37669719       0.05219929      353        2      -1.20000000      -1.20000000
O        2.16832221      22.00413388      14.21517857      15.99940000       0.80198897       0.57444807       0.02121660      354        2      -1.20000000      -1.20000000
O       16.32215884      16.85588461       6.62298243      15.99940000      -0.89184697      -0.20880740       0.86250062      355        2      -1.20000000      -1.20000000
O        7.78016433      17.74711114       2.29659249      15.99940000       0.45379664      -1.11308479       0.09915290      356        2      -1.20000000      -1.20000000
O        6.50351668      12.09194509      21.92336815      15.99940000       0.18113406       0.14005049      -0.85562594      357        2      -1.20000000      -1.20000000
O       21.47992279      21.25065312      18.41666051      15.99940000       0.09678034       0.16564561       0.04788474      358        2      -1.20000000      -1.20000000
O       12.63046802       8.84581933      10.84525145      15.99940000      -0.63375452      -0.12491714       1.25863471      359        2      -1.20000000      -1.20000000
O       17.96977893       0.78036403      16.96561216      15.99940000      -0.58402722      -0.46134540       0.07743492      360        2      -1.20000000      -1.20000000
O       11.67050471      12.66915793      14.31752651      15.99940000       0.24477944      -1.79760480      -0.03945370      361        2      -1.20000000      -1.20000000
O       10.95954918       0.87058190       2.84230810      15.99940000      -0.59335072       0.27117375       0.68768431      362        2      -1.20000000      -1.20000000
O        7.99465884      18.27220138       4.94852759      15.99940000       0.08844042       0.45464568       0.11304747      363        2      -1.20000000      -1.20000000
O        6.87295797       1.73432940      17.72062853      15.99940000      -0.72202261      -0.24274179      -0.02330283      364        2      -1.20000000      -1.20000000
O        6.42729216      19.58205625       1.03449888      15.99940000       0.05458321      -0.34383109       0.08984006      365        2      -1.20000000      -1.20000000
O        4.94214719      18.14753883       8.21314360      15.99940000       0.53248275      -0.14895101       0.00835350      366        2      -1.20000000      -1.20000000
O        5.63588674       6.07590728       5.00168236      15.99940000      -0.39712355      -0.12842045      -0.46364887      367        2      -1.20000000      -1.20000000
O        5.58009244      17.85058140       3.81515512      15.99940000       0.69785173       0.60199211       0.00201765      368        2      -1.20000000      -1.20000000
O        6.38574370      12.83039033      19.38150201      15.99940000      -0.73650633      -0.04702195      -0.65027493      369        2      -1.20000000      -1.20000000
O       13.83882866      14.53420978      18.92836661      15.99940000      -0.57603801      -0.58283211      -1.35536369      370        2      -1.20000000      -1.20000000
O        1.34147396       1.94367538       7.32045375      15.99940000       0.70100487      -0.76682914       0.35722092      371        2      -1.20000000      -1.20000000
O       18.29598455      17.67605486      16.67207156      15.99940000      -0.20646491      -0.75145708      -0.45823370      372        2      -1.20000000      -1.20000000
O       14.11865882      16.72327976      16.39940690      15.99940000       0.05743860       0.10925688       0.15052749      373        2      -1.20000000      -1.20000000
O       21.31675115      16.53811771       7.26974197      15.99940000       0.47041436       0.48382948      -0.97623203      374        2      -1.20000000      -1.20000000
O        9.34082489       3.90035336       2.75665237      15.99940000      -0.30587131      -0.32662606      -0.24640335      375        2      -1.20000000      -1.20000000
O        7.80698683      14.03341139      14.08392248      15.99940000       0.46583292       0.78197759      -1.99199446      376        2      -1.20000000      -1.20000000
O        8.17790138      11.23269121       7.87390331      15.99940000      -0.85185878      -0.93214224      -0.47704222      377        2      -1.20000000      -1.20000000
O        1.73508196       5.01555116      16.83003506      15.99940000       0.79921017       0.48688292      -1.21571948      378        2      -1.20000000      -1.20000000
O       18.07578016      11.74391572      13.63828927      15.99940000      -0.75393777      -1.46298007       0.52035019      379        2      -1.20000000      -1.20000000
O        7.17811333       7.15653742      15.17788257      15.99940000      -0.72730662      -0.08946946      -0.48919678      380        2      -1.20000000      -1.20000000
O        6.33404139       1.71194446      20.13908439      15.99940000       0.29615566       0.11329165       0.50244167      381        2      -1.20000000      -1.20000000
O        3.95372610      12.34671066       1.83565108      15.99940000      -0.15523107      -0.63854716       0.00441296      382        2      -1.20000000      -1.20000000
O       11.46070606      17.85436175       5.85062424      15.99940000      -0.38984459      -0.48565811       1.21319826      383        2      -1.20000000      -1.20000000
O        8.47654162      10.73754826       5.41503416      15.99940000      -0.69684925       0.01218691       0.52120975      384        2      -1.20000000      -1.20000000
O        3.79393925       2.87538434       7.41129704      15.99940000      -0.07972544      -0.55841219       1.23275153      385        2      -1.20000000      -1.20000000
O       12.94943932      22.18647396       9.67756483      15.99940000      -0.45965221       0.76420613      -0.82294127      386        2      -1.20000000      -1.20000000
O       20.44708131      13.63209586       1.78541811      15.99940000       0.41132883      -0.35400472       1.11687088      387        2      -1.20000000      -1.20000000
O       13.79066625      17.64248472      18.83823401      15.99940000      -0.52863397      -0.30075598       1.66829646      388        2      -1.20000000      -1.20000000
O        2.66738659       1.28405701      19.80436773      15.99940000       0.07192094       0.05102225      -0.18016698      389        2      -1.20000000      -1.20000000
O       13.50398963      11.62460719       7.36541775      15.99940000       0.37058775      -0.82616838      -0.27015176      390        2      -1.20000000      -1.20000000
O        4.08496687      14.50001393      17.66338486      15.99940000      -0.73991428       0.13232843       0.87619328      391        2      -1.20000000      -1.20000000
O       13.88332896      17.99684838       6.54669511      15.99940000      -0.47888782      -0.57704342      -0.64053560      392        2      -1.20000000      -1.20000000
O       11.92182990      16.76498583       9.47981113      15.99940000       0.27829980       0.32408782      -0.52732523      393        2      -1.20000000      -1.20000000
O        4.17713478      11.90550964      20.50202662      15.99940000      -0.46141165       0.76059348       0.58916221      394        2      -1.20000000      -1.20000000
O       15.87525309      10.93054542       6.20842977      15.99940000       0.90422682       0.20235290      -0.63027153      395        2      -1.20000000      -1.20000000
O       17.75131279       9.12228728      13.18492818      15.99940000       0.56367415      -0.92951560      -0.49096859      396        2      -1.20000000      -1.20000000
O        0.68274494      20.97748569       9.39661631      15.99940000      -0.07932658       0.05169868      -0.01251504      397        2      -1.20000000      -1.20000000
O       12.21941297      17.97386353      13.60705501      15.99940000      -0.22125345      -0.58154568      -0.45515285      398        2      -1.20000000      -1.20000000
O        7.18831747       1.46773293       0.18243129      15.99940000       0.80865702       0.60171247      -0.29271492      399        2      -1.20000000      -1.20000000
O        6.02832807       4.69245028      14.77336705      15.99940000       0.70031222      -0.75789384      -1.21239029      400        2      -1.20000000      -1.20000000
O       20.28400301       1.51302647      10.43450651      15.99940000       0.01518713       0.56015442       0.42971653      401        2      -1.20000000      -1.20000000
O       16.93426138      15.00601514       0.82155006      15.99940000       0.48614018       1.03438826      -1.15557101      402        2      -1.20000000      -1.20000000
O       10.12569458      21.88409860      16.44596025      15.99940000      -0.62013015      -0.22455896       0.11800727      403        2      -1.20000000      -1.20000000
O       19.79945732       0.96967937      20.83213045      15.99940000      -0.48111337      -0.16661297       0.86874336      404        2      -1.20000000      -1.20000000
O       17.48588851       8.79501284       5.20196622      15.99940000       0.68324299      -0.89416908       0.67822297      405        2      -1.20000000      -1.20000000
O        1.97668822       4.75229417      11.53429276      15.99940000       1.20872920      -0.96497766       0.59431484      406        2      -1.20000000      -1.20000000
O        9.28866804      19.90581004       6.77837517      15.99940000       0.06301197      -1.24146235      -0.03763453      407        2      -1.20000000      -1.20000000
O        4.47630550       7.90018844       6.42578352      15.99940000      -0.12767840       0.14194611      -0.42071990      408        2      -1.20000000      -1.20000000
O        4.54529914       6.91201482      14.71162155      15.99940000       0.38031400      -0.19931903      -0.75584028      409        2      -1.20000000      -1.20000000
O       11.58844818       5.49944389       3.11091808      15.99940000      -0.40042006       0.64438699      -0.24645823      410        2      -1.20000000      -1.20000000
O        4.64596698      15.99850320       9.91983775      15.99940000      -0.67948065      -0.03129024       0.00037638      411        2      -1.20000000      -1.20000000
O        8.68041623      17.24028338      18.27926180      15.99940000       1.59502985      -0.72069903      -0.13909348      412        2      -1.20000000      -1.20000000
O       20.88486305      19.82648396      20.78208045      15.99940000       0.51335548       0.23724918       0.57162333      413        2      -1.20000000      -1.20000000
O        6.86045091       0.30942936      15.36915558      15.99940000       0.20492943      -0.68560084       1.34065613      414        2      -1.20000000      -1.20000000
O       17.78342097      19.61720895       6.83557570      15.99940000       0.52816480      -0.04884142      -0.02660680      415        2      -1.20000000      -1.20000000
O        5.12199114      14.17110411      21.37396887      15.99940000      -0.80213398      -0.90054615      -0.50423118      416        2      -1.20000000      -1.20000000
O        7.18168368      12.12711401      17.00094911      15.99940000       0.50164090       0.51970650      -0.73004760      417        2      -1.20000000      -1.20000000
O       17.69431776       0.25945519      22.12645214      15.99940000       1.08504588      -0.73711483      -0.35941692      418        2      -1.20000000      -1.20000000
O        9.22807878       5.72865036      11.18731003      15.99940000      -0.78921865      -0.51430440      -1.95252056      419        2      -1.20000000      -1.20000000
O        1.43273308      17.61110118       0.47531140      15.99940000       0.20817746      -1.38551564      -0.65350245      420        2      -1.20000000      -1.20000000
O       13.11792450       5.87703536      13.32033536      15.99940000      -1.45222885       0.31698101       0.48006488      421        2      -1.20000000      -1.20000000
O        2.08940327      21.14709509      19.35542273      15.99940000       0.67285828      -0.99944880       0.26625056      422        2      -1.20000000      -1.20000000
O       16.37033416       3.86810844      13.04864158      15.99940000      -1.33934196      -0.12922327       0.25346414      423        2      -1.20000000      -1.20000000
O       12.87359501      18.82280762       2.02769819      15.99940000       0.72893808       0.82194407      -0.27116872      424        2      -1.20000000      -1.20000000
O       20.55036269      13.40872796      11.02126784      15.99940000       1.27844693       0.52501203       0.80744608      425        2      -1.20000000      -1.20000000
O       14.55032181       2.93295007      20.08933556      15.99940000      -0.37777354      -0.10010202      -0.25817855      426        2      -1.20000000      -1.20000000
O        7.63599894      22.07468440      17.67013369      15.99940000       0.56462477      -0.10444273       0.25803922      427        2      -1.20000000      -1.20000000
O       19.76675612      21.65108235       5.05945694      15.99940000      -0.19441157       0.99986297       0.63594314      428        2      -1.20000000      -1.20000000
O       15.83964174       5.09990498      15.35928107      15.99940000      -0.23872122       0.45670138      -0.06091672      429        2      -1.20000000      -1.20000000
O       12.90007962       1.72746161      10.64646118      15.99940000      -0.41681342      -0.01054633      -0.62073493      430        2      -1.20000000      -1.20000000
O       21.24233458      17.24211668      20.33292344      15.99940000       0.14952993      -0.16599026      -0.83491045      431        2      -1.20000000      -1.20000000
O       18.85173010      18.37838397      20.95765771      15.99940000       0.46490457      -1.71430775      -0.27731114      432        2      -1.20000000      -1.20000000
O        9.87430290       6.09874917      20.97450991      15.99940000      -0.62579564       0.34862290      -0.41595891      433        2      -1.20000000      -1.20000000
O       16.86650000      12.29142586      18.48285933      15.99940000      -0.61337491       0.37737678      -0.46696794      434        2      -1.20000000      -1.20000000
O       14.31013968       5.83066352       2.85822755      15.99940000      -1.26141192       0.29995023      -0.70840856      435        2      -1.20000000      -1.20000000
O       15.99360993       0.78377104       1.86024656      15.99940000       0.17127436      -0.07067069       0.38854767      436        2      -1.20000000      -1.20000000
O        3.89611754      16.47909795      21.96024888      15.99940000      -0.38578282       0.66945558       0.73380697      437        2      -1.20000000      -1.20000000
O       10.90664317      17.98327621       3.44376770      15.99940000      -0.59437027       0.75685319      -0.51203037      438        2      -1.20000000      -1.20000000
O        9.03682329       8.96383944      14.49828292      15.99940000       0.69522081       0.23067615       0.55248455      439        2      -1.20000000      -1.20000000
O        1.37353349       3.05252451      18.49224845      15.99940000      -1.63609699       0.71388550      -0.00789962      440        2      -1.20000000      -1.20000000
O       17.09277508      14.29997585      20.40271504      15.99940000      -0.12859172      -0.23300295       1.30447700      441        2      -1.20000000      -1.20000000
O       19.18930954      21.80810253      19.91129784      15.99940000      -0.11358638       0.87406533      -0.74305970      442        2      -1.20000000      -1.20000000
O       19.50973602      19.52054177       9.01518036      15.99940000       0.25468703      -0.65836943       0.36213467      443        2      -1.20000000      -1.20000000
O       19.65207823      19.57036817      18.43357425      15.99940000       0.20594444      -0.31260787      -0.23427703      444        2      -1.20000000      -1.20000000
O        8.83702881       7.08993128       8.95330870      15.99940000       0.16009217      -0.02349710       0.00449181      445        2      -1.20000000      -1.20000000
O       14.50903274       7.80044531       9.04722068      15.99940000      -0.21345277       0.90654608       0.08840398      446        2      -1.20000000      -1.20000000
O       12.14839464      10.90975037       1.83126484      15.99940000      -1.31634512       1.15077258      -0.36887946      447        2      -1.20000000      -1.20000000
O       10.56350501      16.78777734      20.72455219      15.99940000       0.55749827      -0.13899419      -0.17042877      448        2      -1.20000000      -1.20000000
O       19.12468921      22.73392036       1.93231867      15.99940000       0.66755607      -0.71419291       0.17138924      449        2      -1.20000000      -1.20000000
O       10.93941753      21.18074871       3.12829862      15.99940000      -0.32449818       0.17433249       0.72230854      450        2      -1.20000000      -1.20000000
O       10.22102290       1.20678860      20.02723940      15.99940000       0.65413292      -0.66858422      -0.09592882      451        2      -1.20000000      -1.20000000
O        3.95759653      10.09375777       7.94003772      15.99940000       0.78453288      -1.04378228       0.76405672      452        2      -1.20000000      -1.20000000
O        3.36974544       0.28647806       7.78513885      15.99940000       0.25595237       0.17949784      -0.89056583      453        2      -1.20000000      -1.20000000
O       19.62944673       7.25302563      13.23366266      15.99940000      -0.02343933      -0.49595288       0.26735753      454        2      -1.20000000      -1.20000000
O       19.64476412       7.93326868       1.13830587      15.99940000       0.71548595      -1.98038763      -0.36497437      455        2      -1.20000000      -1.20000000
O        7.35969116      18.34425590      16.16323365      15.99940000      -0.49040643      -0.10652406      -0.58250626      456        2      -1.20000000      -1.20000000
O       16.47083613      19.63086922       4.04255233      15.99940000      -0.93543432       0.07746573      -0.83899971      457        2      -1.20000000      -1.20000000
O       12.74377938      21.63236133      16.43553112      15.99940000       1.60485220       0.92787430      -0.66345488      458        2      -1.20000000      -1.20000000
O       18.48650783      13.13973998       3.39676722      15.99940000       0.23206125      -0.55936454       0.03173619      459        2      -1.20000000      -1.20000000
O        2.57575769      11.84633437      13.05675350      15.99940000       0.81049253       0.94043902       0.26814520      460        2      -1.20000000      -1.20000000
O       21.99446366      17.76592503       2.69284171      15.99940000       0.71404871       1.43481420      -0.78691136      461        2      -1.20000000      -1.20000000
O       17.43364853      14.52727927       6.92486394      15.99940000      -0.05627387       0.35066639      -0.58767959      462        2      -1.20000000      -1.20000000
O        3.37899140      11.67288502       5.99353853      15.99940000      -0.53679554       0.62006115       1.42240059      463        2      -1.20000000      -1.20000000
O       13.22492919       1.11156226       8.07566025      15.99940000      -0.85005757       0.43758100       0.99441504      464        2      -1.20000000      -1.20000000
O        6.12213238       0.39191013       4.61513379      15.99940000       0.38412570      -0.74375663      -0.81344159      465        2      -1.20000000      -1.20000000
O        1.65086618       4.52187294       3.12718571      15.99940000       0.22123347      -0.32799135      -0.40637693      466        2      -1.20000000      -1.20000000
O       11.07925605       1.58520916       0.24666920      15.99940000      -0.26480971       0.48846420      -0.07919364      467        2      -1.20000000      -1.20000000
O        3.33167504      19.32054643       1.05930790      15.99940000       0.40048919       0.14550273       0.30918766      468        2      -1.20000000      -1.20000000
O        2.11827037      16.29843035       7.21363436      15.99940000      -0.28642441       0.01214137      -0.00440170      469        2      -1.20000000      -1.20000000
O        0.72479959       9.37480231       8.84037134      15.99940000       0.81571351       0.16793821       0.63591475      470        2      -1.20000000      -1.20000000
O       17.38483518      14.35048891       9.58719186      15.99940000      -0.06733650       0.39378468       0.32962643      471        2      -1.20000000      -1.20000000
O       17.34657776       3.01971003      15.19731946      15.99940000      -0.15287631       0.68175185      -0.15828002      472        2      -1.20000000      -1.20000000
O       14.54736921      20.62203962       0.61788251      15.99940000       0.18560392       1.46882859       0.69061835      473        2      -1.20000000      -1.20000000
O        5.34920408      13.34411164      13.71273799      15.99940000      -0.53829497      -0.50136878      -0.10761074      474        2      -1.20000000      -1.20000000
O        5.04456037      10.93242713      15.82581141      15.99940000       0.73894760       0.17252940      -0.39522995      475        2      -1.20000000      -1.20000000
O        1.72964915      10.69952009      19.87086766      15.99940000      -0.32154986       0.42639705       1.05301542      476        2      -1.20000000      -1.20000000
O        6.74689738       2.73183321      13.22402849      15.99940000      -0.65402414       1.45059013      -0.29817058      477        2      -1.20000000      -1.20000000
O       10.64967486       2.40174151      17.76785127      15.99940000      -0.13527558       1.05702448      -0.15013502      478        2      -1.20000000      -1.20000000
O       19.95816778      12.19545272      15.50052467      15.99940000      -0.08235826      -0.32959205      -0.32235640      479        2      -1.20000000      -1.20000000
O       10.11059631      11.41671508      18.68934598      15.99940000       1.44544298       0.32153353      -0.80742844      480        2      -1.20000000      -1.20000000
O        9.75871852      21.41631107      19.05485700      15.99940000       0.92734348       0.65758355      -1.56904621      481        2      -1.20000000      -1.20000000
O       18.77520271      18.26551425      11.16860338      15.99940000      -0.62635614      -0.26473125      -1.37169674      482        2      -1.20000000      -1.20000000
O       19.57655599       7.51516316      20.51948527      15.99940000      -1.22990855       1.06844347       0.30138546      483        2      -1.20000000      -1.20000000
O        3.38177278      19.37189374       4.20733891      15.99940000       0.20061853       0.00734192      -0.14728809      484        2      -1.20000000      -1.20000000
O        9.15644959       7.64481539       1.06223345      15.99940000      -0.50168367       0.45090671      -0.33441666      485        2      -1.20000000      -1.20000000
O       21.58488493      16.57459278      17.57476553      15.99940000      -0.78565803      -0.10757544      -0.21284995      486        2      -1.20000000      -1.20000000
O        8.70714777      13.64944836      18.52028926      15.99940000       0.05692528       0.88664407      -0.45769289      487        2      -1.20000000      -1.20000000
O       17.54359440       1.33918035      19.52589250      15.99940000       0.74300446      -0.55482633       1.21796528      488        2      -1.20000000      -1.20000000
O        0.32239156       2.12413547      20.87419249      15.99940000       0.12319552       0.93413840      -0.63033519      489        2      -1.20000000      -1.20000000
O       13.41124598      15.00549586      10.85121256      15.99940000      -1.80253035      -0.05271342      -0.27859317      490        2      -1.20000000      -1.20000000
O        8.56728052       3.17209474      19.23759522      15.99940000       0.71069331       1.15131890      -0.19443703      491        2      -1.20000000      -1.20000000
O        4.94798286      19.27730721      16.22037027      15.99940000      -0.55120452      -0.34941458       0.70222233      492        2      -1.20000000      -1.20000000
O        6.87483084      16.48493543       8.54662581      15.99940000      -0.28853094       0.02503347      -0.63139949      493        2      -1.20000000      -1.20000000
O       20.61417160       5.17905591       1.12463651      15.99940000       0.13422876       0.40715311       0.57152074      494        2      -1.20000000      -1.20000000
O        7.42141775      15.78015805       4.07284313      15.99940000       0.28035716      -0.98808270      -0.38173910      495        2      -1.20000000      -1.20000000
O        5.56196960       0.44150402      10.69136377      15.99940000       0.05774372      -0.09204323       0.49724790      496        2      -1.20000000      -1.20000000
O       16.84752537       9.14893761      21.14520184      15.99940000      -0.44203508       0.39977751       0.50142175      497        2      -1.20000000      -1.20000000
O        9.79519927       3.96919883       9.23299452      15.99940000      -0.05700860       0.46351008      -0.36437230      498        2      -1.20000000      -1.20000000
O        6.74962778       2.62838173       3.14012461      15.99940000       0.41054992       0.34030168      -0.02778272      499        2      -1.20000000      -1.20000000
O        2.80747019       1.88265928       9.81045869      15.99940000       1.17604211      -0.34266519      -0.19454929      500        2      -1.20000000      -1.20000000
O       18.44486324       3.31820035      18.04320324      15.99940000      -0.71596444       0.27755498       0.04808842      501        2      -1.20000000      -1.20000000
O       21.19599662      14.74816390      19.43395948      15.99940000      -0.29032985       0.54680771       0.04843673      502        2      -1.20000000      -1.20000000
O       10.28145716      21.16617380       8.93656078      15.99940000       0.48024713      -0.10157255       0.86849888      503        2      -1.20000000      -1.20000000
O       21.82093930       5.13966041      14.76187730      15.99940000       0.20563069      -0.49832841       0.49879359      504        2      -1.20000000      -1.20000000
O       21.57662216      12.06563069      18.88543578      15.99940000       0.24643286      -0.86497977       0.88408049      505        2      -1.20000000      -1.20000000
O        1.06900520      18.69500295       7.79340748      15.99940000      -0.17815541      -0.74438370       0.44205662      506        2      -1.20000000      -1.20000000
O       15.27060054      17.30843282       4.33450808      15.99940000       0.83731644      -0.17197155       0.13055175      507        2      -1.20000000      -1.20000000
O       12.68156399       7.06655496       1.26908117      15.99940000       0.05142685      -0.21669054       0.07960089      508        2      -1.20000000      -1.20000000
O       20.13937927      14.72976781       8.71795664      15.99940000      -0.11245383       0.16610278       0.01122624      509        2      -1.20000000      -1.20000000
O        7.22888621      22.04284527       1.53423588      15.99940000       0.59630870       0.18225801      -0.18692634      510        2      -1.20000000      -1.20000000
O       10.58643492       6.03324511      18.42841935      15.99940000      -0.11131502       0.47593338      -0.23162239      511        2      -1.20000000      -1.20000000
O        1.66962852      14.93064644      17.04597888      15.99940000      -0.93402076       0.32912166      -0.43532509      512        2      -1.20000000      -1.20000000
O        2.21531625       1.02504943       1.19207253      15.99940000       1.96328142       0.69279590      -0.16898255      513        2      -1.20000000      -1.20000000
O       14.41534617       0.65369294      18.67626099      15.99940000       0.31017281      -0.49096255      -1.10099942      514        2      -1.20000000      -1.20000000
O        3.19377083      14.29855341       5.67217642      15.99940000       1.12141261       0.29960372       0.93271805      515        2      -1.20000000      -1.20000000
O       14.89651083      18.36790704      13.87925782      15.99940000      -0.05595794      -0.90656425       0.34440164      516        2      -1.20000000      -1.20000000
O        8.55853881      16.57490411      13.28491644      15.99940000      -0.51624829       0.84324371      -0.01752541      517        2      -1.20000000      -1.20000000
O        4.15438729       8.41523038       1.31084402      15.99940000       0.61685716       0.18662424       1.18126758      518        2      -1.20000000      -1.20000000
O        3.27624633      17.64686635      14.15724219      15.99940000       0.00910462       0.38711986      -0.65907905      519        2      -1.20000000      -1.20000000
O        6.91450471      20.76840745      15.23994756      15.99940000      -0.47486136       0.78767588       0.51190181      520        2      -1.20000000      -1.20000000
O        8.67827934      21.96192193      13.46568248      15.99940000      -0.03363218       1.27561408       1.78478181      521        2      -1.20000000      -1.20000000
O       18.20568318       2.47745918      11.57952731      15.99940000      -0.39790728       0.09385158      -0.51437500      522        2      -1.20000000      -1.20000000
O       19.49035889      15.72667639       3.05993826      15.99940000      -0.55224751      -0.24248976      -0.84497493      523        2      -1.20000000      -1.20000000
O        9.07719731      14.70149661       2.40100678      15.99940000      -0.39170172       0.23682084      -0.89751546      524        2      -1.20000000      -1.20000000
O        1.24073787       1.56644580       4.78377479      15.99940000       0.36411722       0.98048936      -0.72438864      525        2      -1.20000000      -1.20000000
O       19.73264981       8.06646231      10.22258282      15.99940000      -0.35860783      -0.36274105      -0.23450962      526        2      -1.20000000      -1.20000000
O       11.88869137      19.53085414       7.72208858      15.99940000      -0.23917091      -0.26994410       0.91079523      527        2      -1.20000000      -1.20000000
O        2.64865389       7.55281068      19.21129080      15.99940000       0.04917096       0.14788967      -0.90401957      528        2      -1.20000000      -1.20000000
O        6.18362640       4.15291565      18.73531389      15.99940000      -1.45298348      -0.17773256       0.24409945      529        2      -1.20000000      -1.20000000
O        7.34767385      12.59366094      11.94897311      15.99940000       0.79391179       0.58248432       0.23908125      530        2      -1.20000000      -1.20000000
O        9.68464311      18.87920912      13.16985383      15.99940000       0.35370660      -0.16130503      -0.56060534      531        2      -1.20000000      -1.20000000
O       11.92400052      12.98484899      11.61812594      15.99940000       0.32543091       0.98673264      -0.91775359      532        2      -1.20000000      -1.20000000
O        4.79050751       0.60213936      16.76445367      15.99940000       0.57313703       0.80230395      -0.62491835      533        2      -1.20000000      -1.20000000
O       20.63190234      13.81272096       4.64077534      15.99940000      -0.30906234      -0.53356507      -0.31923116      534        2      -1.20000000      -1.20000000
O       11.29833309      10.80011246      20.80636190      15.99940000       1.03631976       0.14997888       0.28261034      535        2      -1.20000000      -1.20000000
O       21.03368622      12.38879356       8.64355250      15.99940000       0.05034536       0.84007860       0.81443575      536        2      -1.20000000      -1.20000000
O        9.60352436      -0.21626714      11.45158581      15.99940000      -0.68846561       0.84288968      -1.04239278      537        2      -1.20000000      -1.20000000
O        5.27112129      20.91248328       3.18789223      15.99940000       0.81361506      -0.40974668      -0.13975902      538        2      -1.20000000      -1.20000000
O        2.66440032      18.10502440      16.57618547      15.99940000      -0.35469127       0.55747238       0.39300815      539        2      -1.20000000      -1.20000000
O       10.04842430       7.70907442       6.72056306      15.99940000       0.80109090      -1.26486787       0.25638885      540        2      -1.20000000      -1.20000000
O       13.75764588      11.80431025      17.06070678      15.99940000       0.52784380       0.77109876       0.28388386      541        2      -1.20000000      -1.20000000
O       21.56512006      22.09471740      11.52722547      15.99940000      -0.11729422      -0.07626056       0.40004298      542        2      -1.20000000      -1.20000000
O       10.54300862      18.86904615       0.71698334      15.99940000       0.00917039      -0.91242664       0.59992980      543        2      -1.20000000      -1.20000000
O       10.77585681      12.12508703       7.63044973      15.99940000       0.24024792      -0.95909157       0.43675397      544        2      -1.20000000      -1.20000000
O       11.52078078      16.56402605       1.33551704      15.99940000       1.30935900       0.32861187      -1.33143384      545        2      -1.20000000      -1.20000000
O       12.73797911       6.97825830      15.70830668      15.99940000      -1.11713215      -0.27474071      -0.08849356      546        2      -1.20000000      -1.20000000
O       10.22894468      11.61434243       3.52453228      15.99940000      -0.23544354      -0.12891566      -1.28133804      547        2      -1.20000000      -1.20000000
O        9.12444076      14.28688375      12.00706798      15.99940000       0.14933004       0.44714656       0.01136639      548        2      -1.20000000      -1.20000000
O       19.67305092       4.57580416      13.49568635      15.99940000      -0.07102097      -1.15471876      -1.10954239      549        2      -1.20000000      -1.20000000
O       14.52479400       1.61138635       5.68268782      15.99940000      -0.64909278       0.73838485       0.40209305      550        2      -1.20000000      -1.20000000
O       11.23323559       3.83991165      11.42848488      15.99940000      -1.34577949      -0.49784649       0.33516086      551        2      -1.20000000      -1.20000000
O        2.35124500      12.66395567       3.69340592      15.99940000       0.57921949       0.23969555      -0.76313402      552        2      -1.20000000      -1.20000000
O       13.41700335       9.26553814      16.59258269      15.99940000      -0.95041992       0.81412762       0.96888865      553        2      -1.20000000      -1.20000000
O       13.85206961       4.27812992      22.26097396      15.99940000       0.18187591       0.93625923      -0.48200241      554        2      -1.20000000      -1.20000000
O       15.06145695       2.64722758       0.30168444      15.99940000       0.60762606      -0.30358927      -0.74547859      555        2      -1.20000000      -1.20000000
O        7.47878579      11.54457751       3.19658623      15.99940000       0.20126321       1.17156825       0.41233082      556        2      -1.20000000      -1.20000000
O       12.55001811      13.39069417       9.08662606      15.99940000       0.01801098       0.13675255       0.06529745      557        2      -1.20000000      -1.20000000
O        3.06816052       4.96687023      19.10236693      15.99940000       0.32677527      -0.30960852      -0.62383704      558        2      -1.20000000      -1.20000000
O       12.29622688      22.72254257       5.61457673      15.99940000       0.39328693      -1.27776456      -0.13664886      559        2      -1.20000000      -1.20000000
O       10.38239876       5.29912889       0.78673728      15.99940000      -0.35722745       0.05014460      -0.04166482      560        2      -1.20000000      -1.20000000
O       21.48037969      15.78602055       0.72798334      15.99940000       1.19836433       0.40578590       0.77091504      561        2      -1.20000000      -1.20000000
O        4.52712599       1.26300232       2.70527255      15.99940000       0.24367092       0.14569164       0.55593113      562        2      -1.20000000      -1.20000000
O       15.77677059      14.09857404       3.20487507      15.99940000      -0.80548479       0.26829739      -1.02780707      563        2      -1.20000000      -1.20000000
O       19.19762967      21.42491470      15.84466436      15.99940000       0.28135991      -0.68389291      -0.26792746      564        2      -1.20000000      -1.20000000
O        0.89175750      12.81958933       5.86705602      15.99940000      -1.09844833      -0.52235765       0.64443333      565        2      -1.20000000      -1.20000000
O        5.72587750       6.18595500      17.00950970      15.99940000       0.43155397      -0.05810936      -0.36617069      566        2      -1.20000000      -1.20000000
O        5.06735633       6.47114805      19.46144751      15.99940000      -0.72993649      -0.10328490       0.07933059      567        2      -1.20000000      -1.20000000
O        1.99086099      14.02186815      11.83517471      15.99940000       0.46454247       0.35634832      -0.54354205      568        2      -1.20000000      -1.20000000
O        7.89265537       6.23062012       6.70193164      15.99940000       0.45172686      -0.50439417      -0.06801045      569        2      -1.20000000      -1.20000000
O        4.99154370      12.63369782       7.83381999      15.99940000       0.85696239      -0.48079914       0.76587484      570        2      -1.20000000      -1.20000000
O        4.25537691      21.42815885       5.74799218      15.99940000      -0.45328104      -0.49693471      -0.10120531      571        2      -1.20000000      -1.20000000
O        1.63593301      20.50290122      11.93938142      15.99940000       1.83384124       0.06985462       1.09981064      572        2      -1.20000000      -1.20000000
O       18.14704225      -0.03346736       7.02389705      15.99940000      -0.03549263       0.30830656      -0.42580232      573        2      -1.20000000      -1.20000000
O       10.38807416       9.21226868       2.91222175      15.99940000      -0.72011215      -0.22210451       0.51328392      574        2      -1.20000000      -1.20000000
O        5.95288082      16.40181980      20.24345554      15.99940000       0.32369931      -0.91144716      -0.78640343      575        2      -1.20000000      -1.20000000
O       11.26483428      21.67343971      21.10101707      15.99940000      -1.03443276      -0.49872959      -0.15181037      576        2      -1.20000000      -1.20000000
O       17.01126203      21.62285049       0.57165508      15.99940000       1.10914225      -0.53927787       0.00122005      577        2      -1.20000000      -1.20000000
O       10.44555431      13.25908265      16.62198976      15.99940000       0.09427869      -0.55072648      -0.29274130      578        2      -1.20000000      -1.20000000
O        4.22514292       7.57986816      11.38961354      15.99940000      -0.06433180      -0.63761453       0.22017847      579        2      -1.20000000      -1.20000000
O       17.14787365      15.57575329      17.30380865      15.99940000      -0.14397256      -0.15273840      -0.17761539      580        2      -1.20000000      -1.20000000
O        3.64769302       3.14380699      17.02179906      15.99940000       0.28282482      -1.00553651      -0.62061235      581        2      -1.20000000      -1.20000000
O       18.43533138       3.99113173       1.07086647      15.99940000      -0.58903632       0.72727562       0.32419955      582        2      -1.20000000      -1.20000000
O       12.52732280      14.59701618      15.82313653      15.99940000       0.04778842       0.16151479      -0.38421484      583        2      -1.20000000      -1.20000000
O        9.22471461       8.36427123      11.27265514      15.99940000       0.00461454      -0.68154418       0.34598018      584        2      -1.20000000      -1.20000000
O       16.95843171       7.96582679       8.10072724      15.99940000       0.40767976      -0.18623273      -1.59700035      585        2      -1.20000000      -1.20000000
O       16.47454341      10.67175874       3.66760731      15.99940000       0.23312504       0.15550230       0.35035900      586        2      -1.20000000      -1.20000000
O        3.15763428       8.73947935      13.48247766      15.99940000      -0.09904360       0.03701100      -0.16624532      587        2      -1.20000000      -1.20000000
O       11.82373123       3.23933604       1.96799588      15.99940000       0.83971019      -0.36549776      -1.24908965      588        2      -1.20000000      -1.20000000
O       17.57965381      17.45593288       3.20033642      15.99940000       0.22178038      -0.91914294       1.87448660      589        2      -1.20000000      -1.20000000
O       17.52830586      21.28245064       8.72944523      15.99940000      -0.29197181       0.13206537       1.13181763      590        2      -1.20000000      -1.20000000
O        0.88229466      16.75904937      15.12912453      15.99940000      -0.01036868       0.81873681       1.11238269      591        2      -1.20000000      -1.20000000
O       21.36688831      11.37562856       4.11456988      15.99940000       0.93405072      -0.77307105       0.33601621      592        2      -1.20000000      -1.20000000
O       13.09614903      10.10609128      19.05331130      15.99940000       0.68896298      -0.83765994      -0.38290674      593        2      -1.20000000      -1.20000000
O        5.52906485       6.36558443       0.19519093      15.99940000      -0.37555593      -1.23002151      -0.06151296      594        2      -1.20000000      -1.20000000
O        3.58893955      10.71423131      18.06854664      15.99940000      -0.29477726      -0.46148930      -0.96819902      595        2      -1.20000000      -1.20000000
O       15.43464098      21.71712345      20.92705574      15.99940000      -0.80535178       0.53835287      -0.13086752      596        2      -1.20000000      -1.20000000
O       16.52212469       8.51483502      10.52538680      15.99940000       0.39028291       0.22023062       0.24189234      597        2      -1.20000000      -1.20000000
O       13.96382100      17.57206472      21.96825725      15.99940000      -0.98029620      -0.20968242      -0.33343673      598        2      -1.20000000      -1.20000000
O       16.67695235       4.42764084      10.11818648      15.99940000       1.53734683      -0.17549036       0.20108925      599        2      -1.20000000      -1.20000000
O       13.36064388      12.37341983      20.34786857      15.99940000       0.28810788      -0.20686268      -0.54884860      600        2      -1.20000000      -1.20000000
O       13.31527608       1.11524207       1.65246724      15.99940000       0.60576754       0.60124914       0.48796923      601        2      -1.20000000      -1.20000000
O       18.46712595      16.29587122       5.35868150      15.99940000      -0.54545784       1.36014235      -0.24995730      602        2      -1.20000000      -1.20000000
O       19.48686238       5.05204284      16.09797436      15.99940000      -0.15196033      -0.46279019      -0.08782372      603        2      -1.20000000      -1.20000000
O       14.63972309       2.69875817      14.78955659      15.99940000       0.18715220      -0.58575388       1.48843748      604        2      -1.20000000      -1.20000000
O       21.11494872       5.60037008      11.60212137      15.99940000       0.63439730       0.97024474      -0.51707413      605        2      -1.20000000      -1.20000000
O       14.73187603      10.05442741       1.77894299      15.99940000       0.08412774       0.66947835       0.92471314      606        2      -1.20000000      -1.20000000
O       15.50300050       5.92242146      11.98514881      15.99940000       0.38870916       0.48551950      -0.94625802      607        2      -1.20000000      -1.20000000
O       12.22130459      13.84415556       6.27216833      15.99940000       0.61597574       0.79075775      -0.82205762      608        2      -1.20000000      -1.20000000
O        3.41428695      17.21281350       2.42477294      15.99940000       1.07588670      -0.63296990       0.11893996      609        2      -1.20000000      -1.20000000
O        9.45461575      15.80391718       8.89707713      15.99940000      -0.44746085       0.35090704       1.34849179      610        2      -1.20000000      -1.20000000
O        1.62136166      11.79927845      10.44553800      15.99940000      -0.72241550       1.00291119       0.90699297      611        2      -1.20000000      -1.20000000
O        9.82700120      18.42236516       8.92064388      15.99940000       1.01958474       0.09794879      -0.25022959      612        2      -1.20000000      -1.20000000
O       20.22226702      13.93397534      13.65758237      15.99940000      -0.00904033       1.06577952      -0.74549461      613        2      -1.20000000      -1.20000000
O       18.76652122      16.69024226       7.88663346      15.99940000       0.05003825       0.31866300      -0.62985334      614        2      -1.20000000      -1.20000000
O       17.08262263      18.65235752       9.28102102      15.99940000       0.59790632       0.07830069      -0.09760551      615        2      -1.20000000      -1.20000000
O       10.62388612       5.99350037      14.33811498      15.99940000      -1.00575364      -0.17093928       0.12237155      616        2      -1.20000000      -1.20000000
O        4.69813471       1.59997531       0.06038061      15.99940000      -0.46186897       0.17026814      -0.04627256      617        2      -1.20000000      -1.20000000
O        7.61212873       8.76693644       7.19549064      15.99940000      -0.15411544       0.31640808       1.05733847      618        2      -1.20000000      -1.20000000
O       13.88867639      19.31493831      16.86198930      15.99940000       0.65435471       0.30545067      -0.37056694      619        2      -1.20000000      -1.20000000
O       16.26338480      19.11402196      21.09828247      15.99940000      -0.30553650       0.27474771      -0.36318330      620        2      -1.20000000      -1.20000000
O        1.37055505      11.69892958       1.26645002      15.99940000      -0.96521309      -1.55113464      -0.61062170      621        2      -1.20000000      -1.20000000
O        9.05679509      14.09311708      21.95128614      15.99940000      -0.95476020      -0.03205592      -1.35787190      622        2      -1.20000000      -1.20000000
O       15.40395443       7.36804196      16.35867078      15.99940000       0.67707085      -0.43198598       0.64954444      623        2      -1.20000000      -1.20000000
O       22.01611515       7.32059776       7.23674177      15.99940000       0.49998572      -0.98701738       0.80418728      624        2      -1.20000000      -1.20000000
O        3.39928586       3.29729339       1.69506889      15.99940000      -0.01006826      -0.03651812       0.32069451      625        2      -1.20000000      -1.20000000
O       13.50569790       4.48822924       7.88240783      15.99940000      -0.19655352       0.01459525      -0.06117000      626        2      -1.20000000      -1.20000000
O       13.59327755       7.19128481      18.15793445      15.99940000       0.23981609       0.01814681      -0.20349912      627        2      -1.20000000      -1.20000000
O       12.73865684       7.68147894       3.90595752      15.99940000       0.27388113      -0.07887932       0.28060264      628        2      -1.20000000      -1.20000000
O       19.94327369      18.11800602       4.40277169      15.99940000       0.31210589      -0.61064594      -0.08500412      629        2      -1.20000000      -1.20000000
O       15.81385096       0.64385163       7.83512465      15.99940000       0.39141151       0.11457315       0.38337999      630        2      -1.20000000      -1.20000000
O        3.66172315      17.08927077       5.31538826      15.99940000       0.68273551       0.98917741       0.64851819      631        2      -1.20000000      -1.20000000
O        0.25992626       6.38776363       4.77291167      15.99940000      -0.20585533      -0.35296503      -0.03952588      632        2      -1.20000000      -1.20000000
O        0.29833194       0.56796332      18.87304931      15.99940000       1.16858562      -0.59228053       0.41578073      633        2      -1.20000000      -1.20000000
O       15.37148864      10.20211487       8.67023027      15.99940000      -1.64691690       0.57723727       0.63300575      634        2      -1.20000000      -1.20000000
O        5.36085972       9.90720102       3.07666895      15.99940000       0.33277912       0.56696398       0.31899222      635        2      -1.20000000      -1.20000000
O       10.82138104       1.51499039       9.08172086      15.99940000      -0.80361402       0.80559272       0.78891158      636        2      -1.20000000      -1.20000000
O        6.06333238       4.27348192       6.93561328      15.99940000      -0.33441987       0.30274183      -0.67355839      637        2      -1.20000000      -1.20000000
O       18.05860331       9.94712479      18.30484866      15.99940000       0.13985973       1.24278734      -1.87083665      638        2      -1.20000000      -1.20000000
O        3.27088563       9.01518260      16.01181236      15.99940000      -0.62106500       0.33389080      -0.30519817      639        2      -1.20000000      -1.20000000
O        9.87871903      15.82173584       4.78555292      15.99940000      -1.07000852      -0.77260737       0.61479720      640        2      -1.20000000      -1.20000000
O        7.60296629      18.59731456      11.59734049      15.99940000       0.46256854      -0.75736551      -1.01739176      641        2      -1.20000000      -1.20000000
O        6.02356248       3.82749197       0.06123456      15.99940000      -0.42167115      -0.02533340      -0.36615186      642        2      -1.20000000      -1.20000000
O        4.05539351      12.44422957      10.90536746      15.99940000      -0.00894715       0.49279689      -0.62823026      643        2      -1.20000000      -1.20000000
O        8.51677067      10.51947785      20.86681236      15.99940000       0.16097770      -0.30117761       0.39634832      644        2      -1.20000000      -1.20000000
O       18.84567193      10.53155089      11.25332564      15.99940000       0.82115298      -0.10838467      -0.56360118      645        2      -1.20000000      -1.20000000
O       18.81349275       5.59628078       8.86734623      15.99940000       0.55755897      -0.59407676       2.25295132      646        2      -1.20000000      -1.20000000
O       13.22815272       3.84792027       5.29636901      15.99940000      -0.93347191      -1.69562418       0.32932964      647        2      -1.20000000      -1.20000000
O       12.39604441       6.00613403      20.76512750      15.99940000       0.33010934      -0.06353512      -0.17558198      648        2      -1.20000000      -1.20000000
O        2.71950365      21.96186737       3.76468596      15.99940000      -1.10744356      -0.22364749       0.09023115      649        2      -1.20000000      -1.20000000
O       10.15121822       8.84936811      19.53640847      15.99940000       0.00331058      -0.08842835      -0.84284445      650        2      -1.20000000      -1.20000000
O       14.33077947      12.49059522       1.58622209      15.99940000      -0.94163315      -0.81550473       0.42899817      651        2      -1.20000000      -1.20000000
O        9.27239079      12.59094905       9.84190459      15.99940000       0.49476798      -0.76016492       0.04953756      652        2      -1.20000000      -1.20000000
O        6.89970211      19.18006954      18.53291837      15.99940000       0.31912318      -0.13091620       0.24443534      653        2      -1.20000000      -1.20000000
O       12.65067004       8.44430951       6.32322409      15.99940000       0.13877218      -0.44726362       0.90690464      654        2      -1.20000000      -1.20000000
O       10.10195114      11.31776720      12.68357127      15.99940000      -0.32737023       1.29077172       1.26894173      655        2      -1.20000000      -1.20000000
O        4.34801364       3.90552029      12.84230185      15.99940000       0.71635745       0.52859125       0.49919534      656        2      -1.20000000      -1.20000000
O       20.80567225      18.51928719       0.47176275      15.99940000      -1.07124370      -0.07741550       1.42035241      657        2      -1.20000000      -1.20000000
O        0.72543836       6.76226866       9.75596263      15.99940000       0.21594277      -1.02323377       0.63048007      658        2      -1.20000000      -1.20000000
O        0.55630399       9.96269287      17.60736544      15.99940000      -0.95126503       0.15871860       0.66093403      659        2      -1.20000000      -1.20000000
O        9.92422340      19.30684991      20.59780040      15.99940000       0.28275597      -1.45034722       0.24235578      660        2      -1.20000000      -1.20000000
O        5.20676689       8.04706027       8.99946849      15.99940000       1.03693213      -0.77292141      -1.34102933      661        2      -1.20000000      -1.20000000
O        0.24640369       0.23304454       2.59105875      15.99940000       0.60088490       0.34452369       0.28239095      662        2      -1.20000000      -1.20000000
O        2.82886476      10.15464202       2.80295369      15.99940000      -0.11230689      -0.58593642       0.92778633      663        2      -1.20000000      -1.20000000
O       11.29677223      20.03934426      14.88039535      15.99940000       0.65321385      -0.58127518      -0.25545970      664        2      -1.20000000      -1.20000000
O        0.58051089      12.78227271      14.37303626      15.99940000      -0.39009862       0.24392353      -0.22530601      665        2      -1.20000000      -1.20000000
O       21.22125824       8.82790443       5.04876714      15.99940000      -0.52049291       0.59208148       0.23906845      666        2      -1.20000000      -1.20000000
O       16.36284067      11.11440130      11.82138050      15.99940000       0.70168349       0.17708677      -0.39517312      667        2      -1.20000000      -1.20000000
O        2.20344698       1.11325747      16.03318977      15.99940000       0.54830212      -0.09658109       0.58152539      668        2      -1.20000000      -1.20000000
O       16.52626554       3.97579277      21.66558010      15.99940000      -0.23496909      -0.04814148      -1.08355288      669        2      -1.20000000      -1.20000000
O       20.55728870       2.81348998      15.27182919      15.99940000       0.80445234      -0.67531042       0.13902975      670        2      -1.20000000      -1.20000000
O        7.23934757      11.55388551      14.50516849      15.99940000      -0.04799771      -0.50985938       0.50890247      671        2      -1.20000000      -1.20000000
O       17.18963380      11.12561516       1.08484143      15.99940000       0.53487082       1.24830845      -0.73023239      672        2      -1.20000000      -1.20000000
O        6.14905477      16.91756487       0.48345961      15.99940000      -0.53563110       0.13283904      -0.49753629      673        2      -1.20000000      -1.20000000
O       13.42689989      13.64383419       3.85673562      15.99940000      -0.41513057       0.01132309      -0.69743737      674        2      -1.20000000      -1.20000000
O        9.13282461       5.23847376      16.47947499      15.99940000       0.22052718       0.56100492       0.58824417      675        2      -1.20000000      -1.20000000
O        9.90896051      17.24624072      11.14521706      15.99940000       0.14548008      -0.71888861      -0.04475919      676        2      -1.20000000      -1.20000000
O       12.54228305       1.60578444      15.74378204      15.99940000      -0.76909561      -0.39240506       0.41767848      677        2      -1.20000000      -1.20000000
O        3.43284178       5.82446869       1.62084951      15.99940000      -0.22220028      -0.27453969      -0.41065148      678        2      -1.20000000      -1.20000000
O        0.58416345      17.63888599       5.33394789      15.99940000      -0.01704957      -0.20267663       0.19712100      679        2      -1.20000000      -1.20000000
O        1.69264766      21.79394642      16.91985927      15.99940000      -0.28972689      -0.71110297      -0.03166690      680        2      -1.20000000      -1.20000000
O        8.00631502       0.33806314       9.26803666      15.99940000      -0.25461839      -0.03731310      -0.26288628      681        2      -1.20000000      -1.20000000
O        9.65869111      22.84277991       1.55036939      15.99940000      -0.66368777      -0.58787132       0.10338473      682        2      -1.20000000      -1.20000000
O       14.87107445       8.93708338       4.91032698      15.99940000       0.37355818       0.16504361       1.17566503      683        2      -1.20000000      -1.20000000
O       18.31006181      12.19901570       8.10484256      15.99940000      -0.06766968      -1.07541301       1.24671158      684        2      -1.20000000      -1.20000000
O       21.50953874       0.37006926      15.45206325      15.99940000       0.61685641      -0.16315214      -0.79110291      685        2      -1.20000000      -1.20000000
O       13.77179159      15.94941795      13.95360626      15.99940000      -0.62841762       1.56020998       0.53905805      686        2      -1.20000000      -1.20000000
O        9.16978441      19.71607394      17.35551136      15.99940000      -0.36894885      -0.02829316      -0.04671263      687        2      -1.20000000      -1.20000000
O       19.51670531       8.97583451      15.31796807      15.99940000       0.14455393      -0.85641592      -0.75597293      688        2      -1.20000000      -1.20000000
O       12.34006466      15.96854966       4.40809607      15.99940000       0.46923955      -0.13011307       0.43356576      689        2      -1.20000000      -1.20000000
O        7.84428906      14.41402006       7.28075660      15.99940000      -0.23217029      -0.38717054       0.00877085      690        2      -1.20000000      -1.20000000
O        5.14291465       2.59123636       5.19188303      15.99940000       0.77169607       0.12113679      -1.01293846      691        2      -1.20000000      -1.20000000
O        8.44279995      20.99289559      10.69503308      15.99940000      -0.59175198       0.31843557       0.06197566      692        2      -1.20000000      -1.20000000
O       18.91328851       4.90905532      21.19725850      15.99940000       0.80812041      -0.55901259      -0.03552506      693        2      -1.20000000      -1.20000000
O       17.55667046       6.37795106       1.11144634      15.99940000       0.60637726      -0.00572802       0.38899229      694        2      -1.20000000      -1.20000000
O       17.29996979      16.04451350      14.73270919      15.99940000      -0.30421943       0.40963625      -0.87364372      695        2      -1.20000000      -1.20000000
O        4.72018548      21.57615628       0.80013674      15.99940000       0.02004093      -1.00760222      -0.12543026      696        2      -1.20000000      -1.20000000
O       14.06403755      21.19660540      18.69012678      15.99940000       0.19655868      -0.56462791      -0.20864147      697        2      -1.20000000      -1.20000000
O        3.90541800      19.08439313      18.66043700      15.99940000      -0.90700438       0.16118821       0.02259812      698        2      -1.20000000      -1.20000000
O        4.56574020       2.31598706      14.82221036      15.99940000      -1.85974727      -0.35122573      -0.92887134      699        2      -1.20000000      -1.20000000
O       14.62975735      22.05533328       6.54815648      15.99940000       0.47541530      -0.65034522      -0.18943195      700        2      -1.20000000      -1.20000000
O        4.94894807      15.39830235      15.25970740      15.99940000      -0.75096450      -1.20935603      -0.78311738      701        2      -1.20000000      -1.20000000
O        9.23819338       6.85069870       3.57041829      15.99940000      -0.13256703       0.46005096      -1.34967733      702        2      -1.20000000      -1.20000000
O        0.53534685      14.65402376       9.74803967      15.99940000       0.39213617       0.70158450      -0.11227811      703        2      -1.20000000      -1.20000000
O       15.88455927       3.88721375       5.11287714      15.99940000      -0.43315019       0.11290134       0.52128224      704        2      -1.20000000      -1.20000000
O        2.02342958       6.93788372      15.03297381      15.99940000      -0.43389828       0.93284588      -0.85463748      705        2      -1.20000000      -1.20000000
O       13.65159649      15.00336695       1.55486175      15.99940000      -0.26883073      -0.88778792      -0.30938736      706        2      -1.20000000      -1.20000000
O       22.24429924      22.35999860       4.99528503      15.99940000      -0.67124995       0.90758510       0.79034992      707        2      -1.20000000      -1.20000000
O        8.65864337      21.50586021      21.48280172      15.99940000      -0.68543875       0.30911950      -0.05470572      708        2      -1.20000000      -1.20000000
O        2.28207312      21.13767928       7.31048561      15.99940000      -0.09290559      -0.32212448       1.81768305      709        2      -1.20000000      -1.20000000
O       15.23190045      21.56878792      16.19683367      15.99940000      -0.75636811      -0.64576941       0.11548220      710        2      -1.20000000      -1.20000000
O        7.84373843       6.22027759      18.48218488      15.99940000      -0.23855582       0.33348683       0.20671366      711        2      -1.20000000      -1.20000000
O       17.82555873      13.61716635      15.71445998      15.99940000      -1.21074074      -0.29585627      -1.05112529      712        2      -1.20000000      -1.20000000
O        2.29128004       4.34062195      14.23307741      15.99940000      -0.16152660       0.54575518       0.23484689      713        2      -1.20000000      -1.20000000
O        2.48553501      11.53976754      15.70018526      15.99940000      -0.44957112       1.27308688      -0.47252945      714        2      -1.20000000      -1.20000000
O       11.33101611       3.85780179      15.64229842      15.99940000       0.63186361       0.54745595      -0.01257751      715        2      -1.20000000      -1.20000000
O       21.62450140      15.42311264      12.00503188      15.99940000       0.61673360      -0.61269378       0.65647270      716        2      -1.20000000      -1.20000000
O        3.84105413       7.83414273       3.80249738      15.99940000       1.39150474       0.19350910      -0.45097516      717        2      -1.20000000      -1.20000000
O       21.12951994       1.40736831      13.04940516      15.99940000      -0.16732735      -0.93558608      -1.25073809      718        2      -1.20000000      -1.20000000
O       18.79421187      15.17044486      11.77071836      15.99940000       0.05243522       0.62055158       1.06246555      719        2      -1.20000000      -1.20000000
O        2.49271649      12.91578595      18.82078203      15.99940000       0.83276938      -0.50916555      -0.58980604      720        2      -1.20000000      -1.20000000
O        4.83598453      16.94745783      17.40000780      15.99940000      -0.47938902      -0.29122477       0.84171552      721        2      -1.20000000      -1.20000000
O        5.70443257       9.57103059      11.14638994      15.99940000       0.65443967       0.34596887       0.21050000      722        2      -1.20000000      -1.20000000
O        4.78069074      20.73189247       8.16735207      15.99940000       0.17667765       0.08490785      -0.51971637      723        2      -1.20000000      -1.20000000
O       21.37825455       5.42846007      21.00263145      15.99940000      -0.15659079       0.47406307       0.29685309      724        2      -1.20000000      -1.20000000
O        8.71716084       0.26629913       4.14990015      15.99940000       0.13258809      -0.59767264       0.37477518      725        2      -1.20000000      -1.20000000
O       21.64819427       9.14002896       2.45681227      15.99940000       1.16022969       0.14188028       0.01550763      726        2      -1.20000000      -1.20000000
O       17.04528421       6.22854109       5.39526601      15.99940000      -0.37889610      -1.51529999       0.97618952      727        2      -1.20000000      -1.20000000
O       11.21550107      22.31070934      14.08191271      15.99940000       0.22632587       0.06916576       0.19788727      728        2      -1.20000000      -1.20000000
O       15.53646620      10.17445292      17.91173620      15.99940000       0.40597490       0.12765701       0.53470784      729        2      -1.20000000      -1.20000000
O       19.68300886       5.55091354      18.71020076      15.99940000      -0.98253248      -1.02573218      -0.29327052      730        2      -1.20000000      -1.20000000
O       11.21220976       3.35214508       7.11370487      15.99940000      -0.41127041      -1.14873017       0.36090929      731        2      -1.20000000      -1.20000000
O        8.28996443      17.57877415      21.90549781      15.99940000      -0.81968919       0.95751580       0.57252151      732        2      -1.20000000      -1.20000000
O       15.92226368      20.77791217      13.82424138      15.99940000      -0.28671776       0.18889381       0.16604758      733        2      -1.20000000      -1.20000000
O        6.24061926       1.74613176       7.70408239      15.99940000      -0.70181701       0.19217391       0.59001097      734        2      -1.20000000      -1.20000000
O       14.33542867      15.40326574       5.80683472      15.99940000      -0.50625371      -0.25338751      -0.55079377      735        2      -1.20000000      -1.20000000
O       15.84979561      12.74283330       8.06903558      15.99940000       0.73020621       0.40190521      -0.42247166      736        2      -1.20000000      -1.20000000
O       13.07853093      20.13301612       5.38807850      15.99940000      -0.21051913       0.07078549      -0.55337377      737        2      -1.20000000      -1.20000000
O        7.15045634       9.53247689      16.29004205      15.99940000       0.40950190       0.27638785       1.10855901      738        2      -1.20000000      -1.20000000
O       19.29809805      10.06796613      21.57060030      15.99940000       0.91501883       1.65926364       0.18662596      739        2      -1.20000000      -1.20000000
O       21.55102711      20.61667251       6.86107186      15.99940000      -0.40694809      -0.24077196       1.02036891      740        2      -1.20000000      -1.20000000
O        4.67349562      15.68898332       7.31888866      15.99940000       0.14054618      -0.81816826       0.21719451      741        2      -1.20000000      -1.20000000
O        9.09788177       7.76745401      16.83923569      15.99940000      -0.70895589      -0.45386690      -0.37029003      742        2      -1.20000000      -1.20000000
O        1.02657668       4.07637732       5.71578978      15.99940000      -0.58435957       1.06560270       0.66936969      743        2      -1.20000000      -1.20000000
O        4.71667870      21.51596515      19.37260900      15.99940000       0.59815539      -1.33971363      -0.17230065      744        2      -1.20000000      -1.20000000
O       14.56758289      16.77201248       9.15684861      15.99940000       0.66331126       0.55786312       0.07266239      745        2      -1.20000000      -1.20000000
O        3.33855798      -0.10056531      11.59874780      15.99940000       0.55318605       0.18919716      -0.35628102      746        2      -1.20000000      -1.20000000
O       21.40371860       8.72959161      22.07381430      15.99940000       0.19764234       1.32224148      -1.23220848      747        2      -1.20000000      -1.20000000
O       13.75752610       4.03661151      11.53727874      15.99940000       0.36331310      -0.92230354      -0.16470064      748        2      -1.20000000      -1.20000000
O       21.72274694      19.94127100       4.37392748      15.99940000      -0.39683961      -1.02911618       0.28754845      749        2      -1.20000000      -1.20000000
O        2.38482084       9.34063271      10.86184790      15.99940000      -0.49940187       0.03453119       0.18979586      750        2      -1.20000000      -1.20000000
O       11.80622486       5.84813027       6.43928948      15.99940000      -0.86023177      -0.65798978      -0.41764974      751        2      -1.20000000      -1.20000000
O        8.86633559      12.51452494       0.74786877      15.99940000      -0.26095683      -0.28665359      -0.47797102      752        2      -1.20000000      -1.20000000
O       15.98971376       2.46631798      17.82450985      15.99940000      -0.17914591       0.28406082       0.58605365      753        2      -1.20000000      -1.20000000
O       14.17524646      21.86485040       3.88789942      15.99940000      -0.63549342       0.27618433       0.36246037      754        2      -1.20000000      -1.20000000
O        2.35950423      16.32570160      11.11319811      15.99940000       0.54157668      -0.00526239       0.31908010      755        2      -1.20000000      -1.20000000
O       16.91460645       4.51590143       7.52705842      15.99940000       0.47002974       0.53727296      -1.15506341      756        2      -1.20000000      -1.20000000
O       13.93182669       0.19778481      14.14335140      15.99940000      -0.05602098      -0.08913043      -0.19700981      757        2      -1.20000000      -1.20000000
O       19.69593871      17.04442603      14.37213023      15.99940000      -0.37705015       0.28058184       0.30214920      758        2      -1.20000000      -1.20000000
O        8.09274473       4.84895995      22.22082394      15.99940000       0.59904979      -0.24238483       0.73726449      759        2      -1.20000000      -1.20000000
O       19.70520087      10.13944096       8.71843632      15.99940000      -0.36016953       0.73894960       0.72055758      760        2      -1.20000000      -1.20000000
O        7.53239003      14.28885567       9.81772853      15.99940000      -0.56687966       0.63470016       0.19382169      761        2      -1.20000000      -1.20000000
O       18.54709868       3.05946143       9.04560815      15.99940000       0.09136395       0.61297975       0.22108783      762        2      -1.20000000      -1.20000000
O       16.50001944      -0.05948273      14.86931402      15.99940000       0.36171956       0.15374939      -0.20927538      763        2      -1.20000000      -1.20000000
O       14.59751409       2.79047194       3.15872882      15.99940000      -0.31877300      -0.73023822      -0.58546859      764        2      -1.20000000      -1.20000000
O       20.68075109       2.65517398       0.88313749      15.99940000       0.08481579      -0.45395391       0.11572408      765        2      -1.20000000      -1.20000000
O       21.28898273      14.54818708      15.91966596      15.99940000       0.16150576       0.40621289      -1.18809182      766        2      -1.20000000      -1.20000000
O       17.39415968      11.12813287      16.12132760      15.99940000      -0.25697618       0.24601859       0.12420613      767        2      -1.20000000      -1.20000000
O       10.25396136      14.85610997      14.43850108      15.99940000      -0.57133105      -0.94837479       1.30603694      768        2      -1.20000000      -1.20000000
O        9.22080063       1.51898630      13.46270183      15.99940000       0.96715542      -0.13804729      -0.89564151      769        2      -1.20000000      -1.20000000
O        3.73710204      19.99240483      13.44207930      15.99940000       0.59281095       0.75372714       1.11973426      770        2      -1.20000000      -1.20000000
O       11.01134762       3.89248631      19.86653494      15.99940000       0.23428967      -0.06051899       0.56759389      771        2      -1.20000000      -1.20000000
O       16.78974559      16.52178692      11.16875345      15.99940000       0.10506275       0.24770852       0.01152661      772        2      -1.20000000      -1.20000000
O        5.93277788      10.71177328       6.47682038      15.99940000      -1.30252186      -1.02866810       1.24840422      773        2      -1.20000000      -1.20000000
O       20.82579930       2.54599270       5.78652262      15.99940000       0.32275309      -0.11951024      -0.51981709      774        2      -1.20000000      -1.20000000
O        0.36123169       7.17940619       0.87674578      15.99940000      -0.01405951       0.96572104      -0.00427386      775        2      -1.20000000      -1.20000000
O       19.58069865       7.05127338       5.86307854      15.99940000       0.11874926       1.13244631      -0.71110727      776        2      -1.20000000      -1.20000000
O        3.55133282      19.86415722      21.04869348      15.99940000       0.31338122       0.13514147       0.51444274      777        2      -1.20000000      -1.20000000
O       14.38036272       8.81023509      12.72416557      15.99940000       0.34706302       0.33273744      -0.45863982      778        2      -1.20000000      -1.20000000
O       12.55841252      10.18830771       4.28954523      15.99940000       0.16277471      -0.05669100      -0.78356412      779        2      -1.20000000      -1.20000000
O       11.21697368      14.07413107       0.90533963      15.99940000       1.03326558      -0.44470245       0.20851057      780        2      -1.20000000      -1.20000000
O       16.45336258      18.98129308      11.91218206      15.99940000       0.67362544      -0.14475341       0.64968785      781        2      -1.20000000      -1.20000000
O        7.68707080      -0.17172185       6.68218160      15.99940000       0.73896283      -1.23015229       0.36258794      782        2      -1.20000000      -1.20000000
O       15.00156182      12.45184600      13.53419963      15.99940000       0.55112867       0.38624442      -1.03919862      783        2      -1.20000000      -1.20000000
O       18.66540364       1.42228481       4.74699522      15.99940000       0.57848286      -0.30076866      -0.30198023      784        2      -1.20000000      -1.20000000
O       11.81394383      17.66563069      17.12786027      15.99940000       0.03283935       0.36457445       0.78614872      785        2      -1.20000000      -1.20000000
O       13.28669678       2.92364730      17.84279053      15.99940000       0.88900281       0.55794105       0.24573432      786        2      -1.20000000      -1.20000000
O       17.34084687       5.67636270      17.41423093      15.99940000       0.13257704      -0.55648914      -0.60118163      787        2      -1.20000000      -1.20000000
O        5.90126039      18.69594506      13.97354306      15.99940000      -0.53438403       0.50171548      -0.74717085      788        2      -1.20000000      -1.20000000
O       14.64968161       6.70135587      21.72611198      15.99940000      -0.20783406       0.36790683       1.14332138      789        2      -1.20000000      -1.20000000
O        2.66002120       7.75403790       8.24331917      15.99940000       0.01464829       0.41421070       0.19792237      790        2      -1.20000000      -1.20000000
O       17.11808875      17.46711723      19.17446535      15.99940000       0.23730959       0.49486612       0.40341296      791        2      -1.20000000      -1.20000000
O        2.39774402       2.29897603      12.43822022      15.99940000       0.40995183       0.76513657      -0.13408665      792        2      -1.20000000      -1.20000000
O        8.94696597       3.99344050      14.11757223      15.99940000      -0.26035238      -0.63152059      -0.19332705      793        2      -1.20000000      -1.20000000
O       13.17951286       6.42795330      10.74584882      15.99940000       0.67201948       0.40405972       0.05845766      794        2      -1.20000000      -1.20000000
O       13.69425221      17.45221599      11.54600175      15.99940000      -0.76146751       0.08824381      -0.21048216      795        2      -1.20000000      -1.20000000
O        4.41499594      17.84387888      11.88067885      15.99940000       0.32377144       0.05621501      -0.94273553      796        2      -1.20000000      -1.20000000
O       10.17058441      10.16358371       9.22941812      15.99940000      -1.22192079      -0.53342612      -0.18958212      797        2      -1.20000000      -1.20000000
O       19.87218695       3.48859883       3.33857079      15.99940000       0.60489559      -0.42103490      -0.24009837      798        2      -1.20000000      -1.20000000
O       11.91556631       8.13725934      13.37607138      15.99940000       0.54396124       0.24648924      -0.93076117      799        2      -1.20000000      -1.20000000
O        6.11758089      22.43425091      13.22517600      15.99940000      -0.20665809      -1.12248717      -0.12717946      800        2      -1.20000000      -1.20000000
O       13.68422228      10.21602617      21.79054003      15.99940000       0.17075005      -0.68591932       0.22680302      801        2      -1.20000000      -1.20000000
801
Lattice="21.638567919896126 0.0 0.0 0.41097978951090797 21.75584266165892 0.0 0.24704361060570726 -0.6257713374462452 22.170596399702273" Properties=species:S:1:pos:R:3:masses:R:1:momenta:R:3:id:I:1:type:I:1:initial_charges:R:1:mmcharges:R:1 comment="LAMMPS data file via write_data, version 29 Aug 2024, timestep = 150001, units = metal" pbc="T T T"
Si      10.80603391      14.25578486      16.70044844      28.08600001      -0.23038793       0.09688801      -0.87563712        1        1       2.40000000       2.40000000
Si      16.23590354       2.09304493      14.36078657      28.08600001      -0.59508948       0.15657642       0.73982827        2        1       2.40000000       2.40000000
Si      12.18935307      18.38438216      20.57134835      28.08600001      -1.03049095       0.56030447      -0.45545977        3        1       2.40000000       2.40000000
Si      16.23680746      10.45861132      13.60699203      28.08600001       0.96769961      -0.12837174       0.18904595        4        1       2.40000000       2.40000000
Si       5.56029291      14.70267842      13.60354072      28.08600001      -1.74197483      -0.69493617       0.51871252        5        1       2.40000000       2.40000000
Si       3.30820178       4.29201523       8.36995635      28.08600001      -0.28562322       1.06572232       1.00090635        6        1       2.40000000       2.40000000
Si       3.05438869       3.16911879       4.40942657      28.08600001       0.29759812      -0.54353277      -0.10789559        7        1       2.40000000       2.40000000
Si      11.64603787       0.37201432      17.98319403      28.08600001      -0.36169026       0.98440479       0.12197601        8        1       2.40000000       2.40000000
Si      21.95681173      12.74901423      19.11347674      28.08600001      -0.81708134      -1.28677985       0.22072554        9        1       2.40000000       2.40000000
Si      18.74139144      17.13808969      17.60918126      28.08600001      -0.02754480       0.36110390      -0.78789603       10        1       2.40000000       2.40000000
Si      13.86635154       2.52476717      18.51883916      28.08600001      -0.06021169      -0.75234148      -1.01608089       11        1       2.40000000       2.40000000
Si      20.54219165      19.61411217      17.14965287      28.08600001       0.47888548       0.13401888      -0.35804987       12        1       2.40000000       2.40000000
Si      14.21029070      20.05026424      17.24725018      28.08600001      -0.29830359      -1.10481214      -0.26752893       13        1       2.40000000       2.40000000
Si       2.00930081      16.63729936      18.77991972      28.08600001      -0.26255750      -1.41950265       0.18973800       14        1       2.40000000       2.40000000
Si      20.59270445      19.65448374       4.39082349      28.08600001      -0.04261156      -0.47778236      -1.47696069       15        1       2.40000000       2.40000000
Si       5.89501791      15.00981351      16.70328149      28.08600001       0.48451719      -0.32309178      -0.04770718       16        1       2.40000000       2.40000000
Si      18.31190108      17.45153024       3.68580133      28.08600001       0.83033650       0.18556432       0.23605284       17        1       2.40000000       2.40000000
Si      12.99333735      12.90801143      11.49948168      28.08600001      -0.32627118      -0.66828196      -0.95653500       18        1       2.40000000       2.40000000
Si       7.61674037       6.56199869       9.34411202      28.08600001       0.12120194       0.77263922      -0.57956018       19        1       2.40000000       2.40000000
Si       0.63059399      14.62292721       2.58999717      28.08600001      -1.36212744       1.16217091       0.70858234       20        1       2.40000000       2.40000000
Si       0.43930357       5.38894782      11.89744685      28.08600001       0.05335984       0.50888241       0.12329007       21        1       2.40000000       2.40000000
Si       2.39358614       4.05690935      17.69106314      28.08600001      -0.97991818       0.81139989       2.27374873       22        1       2.40000000       2.40000000
Si       2.25716167       7.88775651      10.99483985      28.08600001      -0.38449740       1.47268563      -0.61764765       23        1       2.40000000       2.40000000
Si      15.12934791      16.40232577      14.27442991      28.08600001      -0.45402193       0.38027314      -1.08123657       24        1       2.40000000       2.40000000
Si       7.58841549       0.34627084       6.61048440      28.08600001      -0.85273614      -0.73814704      -0.68241162       25        1       2.40000000       2.40000000
Si      16.94058480      10.02154387      16.54142136      28.08600001       0.63591534       0.97138626       1.09570579       26        1       2.40000000       2.40000000
Si       8.01036610      20.64794107      21.82967885      28.08600001       1.13570388       1.25777741      -0.47310362       27        1       2.40000000       2.40000000
Si      10.92843334      19.31009192      14.41544518      28.08600001      -0.65857707      -0.48951322      -1.38133128       28        1       2.40000000       2.40000000
Si       8.11449670       2.96276943       7.80656330      28.08600001      -0.00770171       0.79524640       0.09972763       29        1       2.40000000       2.40000000
Si      11.69313587      21.01898229      11.82515703      28.08600001       0.74284585      -0.44874689       0.09842644       30        1       2.40000000       2.40000000
Si      19.88489703       1.26833719       7.27515418      28.08600001      -1.37031638      -0.32137999       1.01078905       31        1       2.40000000       2.40000000
Si      17.11020557       8.00439299      18.73331502      28.08600001       0.56868543      -1.08824427      -0.12000532       32        1       2.40000000       2.40000000
Si      14.82069475       3.03473474       4.68334638      28.08600001       1.65326662      -0.87578563      -0.51036496       33        1       2.40000000       2.40000000
Si       1.25184723      17.66664589       3.44172677      28.08600001      -0.26340621      -1.63521490      -1.19453620       34        1       2.40000000       2.40000000
Si      19.96609522       5.20344799       9.73213536      28.08600001       0.34320875       0.35680973      -0.73153940       35        1       2.40000000       2.40000000
Si       1.82866323      16.45484112       6.35524079      28.08600001      -0.28516472      -0.15835644       0.38759921       36        1       2.40000000       2.40000000
Si       8.27213375       9.22282360       1.60427629      28.08600001      -1.71280221      -0.92072370      -0.20704490       37        1       2.40000000       2.40000000
Si      14.95681507       5.19366353      10.07922511      28.08600001      -1.03178734      -0.77933740       1.59130875       38        1       2.40000000       2.40000000
Si       3.32139572      20.98313041      15.06156190      28.08600001       1.48704947      -0.04726363       0.37999790       39        1       2.40000000       2.40000000
Si      12.61994691       9.77779933       7.47112377      28.08600001       1.14751284       0.54913766      -1.22578842       40        1       2.40000000       2.40000000
Si       9.11073633      16.71760672       5.30368325      28.08600001      -0.64431841      -0.75529630       0.82861435       41        1       2.40000000       2.40000000
Si      18.50235633       2.51377291       9.70218335      28.08600001       1.82415030      -0.87899713       0.35915473       42        1       2.40000000       2.40000000
Si       4.77312792      19.02168396      10.34511137      28.08600001      -1.09994900       0.50890223      -0.24233113       43        1       2.40000000       2.40000000
Si       4.80762433      10.20269398      21.77985347      28.08600001      -0.11331230      -0.42020310       0.66905382       44        1       2.40000000       2.40000000
Si      16.67954556       2.59565782      17.38994474      28.08600001      -0.37121835       1.40353411      -1.09328282       45        1       2.40000000       2.40000000
Si      18.99160892      13.34536363       9.94346456      28.08600001       0.76625787       0.05173500       0.47562744       46        1       2.40000000       2.40000000
Si      21.00767873      17.77195612      12.77694712      28.08600001       0.74251721       1.73434720      -1.94353622       47        1       2.40000000       2.40000000
Si      13.55011077      15.86926564       2.40238743      28.08600001      -0.79312814       0.45221079      -0.25084986       48        1       2.40000000       2.40000000
Si      17.20892964       1.10453156       5.23731964      28.08600001      -1.36242507      -1.08819104      -0.69327052       49        1       2.40000000       2.40000000
Si       8.06821292      12.75622647      13.46667274      28.08600001      -0.08085264      -0.69622171      -0.76761206       50        1       2.40000000       2.40000000
Si       3.67806500       0.96242200       8.38290501      28.08600001      -0.63138061       0.09528965      -0.96332799       51        1       2.40000000       2.40000000
Si      17.78325406      19.32488518       1.46314863      28.08600001      -0.27461122       1.44863954      -0.10550521       52        1       2.40000000       2.40000000
Si      21.34311399      10.24962802      17.46029726      28.08600001       1.49676659       0.77581549       0.21309822       53        1       2.40000000       2.40000000
Si       7.97036386      17.05587026      17.86677815      28.08600001      -0.30448393       0.05194166      -0.21170788       54        1       2.40000000       2.40000000
Si      20.20586490      19.82308430       7.36610082      28.08600001       0.01613743       1.59234930      -0.62086740       55        1       2.40000000       2.40000000
Si      15.17564906       5.98848209       3.69108940      28.08600001       0.44151394       0.07187044       0.83074643       56        1       2.40000000       2.40000000
Si      18.95132419       1.61104913      12.73976279      28.08600001      -0.38240848      -0.03980399      -0.05817402       57        1       2.40000000       2.40000000
Si       8.05744365      12.99997302      16.52732280      28.08600001       0.58083596       0.16273974      -1.56913629       58        1       2.40000000       2.40000000
Si       1.77180724      18.75176227      11.00711079      28.08600001       1.25501015       0.70422549      -1.51880916       59        1       2.40000000       2.40000000
Si      21.11376493       7.26518186       5.30088294      28.08600001      -1.30721399       0.56087739      -0.31603059       60        1       2.40000000       2.40000000
Si       7.27217741      15.58792348       8.60859803      28.08600001       0.99764834       0.23190359       0.19799468       61        1       2.40000000       2.40000000
Si      12.79602540       6.58549333       6.95502476      28.08600001       0.44306842      -0.30812062      -0.54795365       62        1       2.40000000       2.40000000
Si      10.05282226      21.21796423       4.53275148      28.08600001       0.09891390      -0.13995809      -0.51230826       63        1       2.40000000       2.40000000
Si      12.69517475      10.87690563      21.48243763      28.08600001      -0.58242104       0.19724711      -0.15619322       64        1       2.40000000       2.40000000
Si       2.35612098       6.24281528      15.45421314      28.08600001      -1.02956056      -1.50021852       0.31220850       65        1       2.40000000       2.40000000
Si       6.78609031      18.59830401      15.51035139      28.08600001       0.61836672      -0.59712175       0.12383338       66        1       2.40000000       2.40000000
Si      17.16259683      12.88810672      17.28179666      28.08600001       1.66170751       1.14530130      -0.91549228       67        1       2.40000000       2.40000000
Si       5.17709704       8.28920633       4.64516801      28.08600001       0.19562654      -0.54131086       0.26349821       68        1       2.40000000       2.40000000
Si      19.34019533      20.75061216      19.76255919      28.08600001       1.02749354      -0.06410833       0.69562288       69        1       2.40000000       2.40000000
Si      13.68996510       6.26186707      14.93165749      28.08600001      -0.66748969      -1.13594241       0.09275659       70        1       2.40000000       2.40000000
Si       5.42272748       2.42235013      12.54138294      28.08600001      -0.20836425      -1.04573039      -0.79849633       71        1       2.40000000       2.40000000
Si      14.34233873      10.48965984       9.93078147      28.08600001      -0.06881073       0.22370582      -0.30048982       72        1       2.40000000       2.40000000
Si      16.31438581       5.78700021      16.78839502      28.08600001       0.45953905       0.54164732      -1.82568179       73        1       2.40000000       2.40000000
Si      10.13893925       3.14829408      12.97058148      28.08600001       0.82997876      -1.29388136       0.21464653       74        1       2.40000000       2.40000000
Si      17.86872813       5.52215772       2.26921307      28.08600001       0.09064032      -0.64176205      -1.51018906       75        1       2.40000000       2.40000000
Si      19.64788882      16.04939184      14.72805272      28.08600001       0.22087166       0.82874652       0.12301940       76        1       2.40000000       2.40000000
Si      12.25742497       4.81786141      17.36852265      28.08600001      -0.64192309       0.62824203      -0.30162498       77        1       2.40000000       2.40000000
Si       6.44278480       1.37643250       9.86397426      28.08600001       2.00372660      -0.51528771       0.00429814       78        1       2.40000000       2.40000000
Si       3.86185996      20.49199357      19.31642904      28.08600001       0.56268150      -0.92531539       0.18040285       79        1       2.40000000       2.40000000
Si      19.47305122       6.23707982      19.54638223      28.08600001      -1.15416042       0.02767925       0.41715701       80        1       2.40000000       2.40000000
Si       9.77005430       2.70279093       4.33887705      28.08600001      -0.28247099      -2.18080723      -1.06173989       81        1       2.40000000       2.40000000
Si      10.85635705      12.52216599       4.38923498      28.08600001      -1.26102335       0.80185255      -0.48321387       82        1       2.40000000       2.40000000
Si      20.96064270       2.72724653       2.33853134      28.08600001       0.47634685      -0.83665814      -0.13305243       83        1       2.40000000       2.40000000
Si       2.64263760      15.28919616      13.48476191      28.08600001      -1.62208665       0.24828296      -0.39301320       84        1       2.40000000       2.40000000
Si       3.98316945      -0.30606177      12.33222078      28.08600001       0.46240321       0.69365280       0.53141971       85        1       2.40000000       2.40000000
Si      15.50128586      13.38674572      14.66733778      28.08600001       0.02263156      -1.70301346       1.05731364       86        1       2.40000000       2.40000000
Si      16.21252703      12.67425078       8.73402477      28.08600001       1.13960670      -1.46618422      -1.60522424       87        1       2.40000000       2.40000000
Si      15.91365710       0.51905191       9.29029554      28.08600001       0.24310562       1.01314135      -1.08516715       88        1       2.40000000       2.40000000
Si       3.38770501       5.86619022       0.51778824      28.08600001       1.56321100       1.32255967       0.81256437       89        1       2.40000000       2.40000000
Si       2.91768325      12.70726342       3.27042582      28.08600001       1.03292982      -0.99400602       0.05724876       90        1       2.40000000       2.40000000
Si      19.40206444      14.79931549       2.52249875      28.08600001      -1.51238482      -0.12018609       0.45009244       91        1       2.40000000       2.40000000
Si      19.24558230       5.18459538      16.50685144      28.08600001       0.38405542       0.60931065       0.00204391       92        1       2.40000000       2.40000000
Si      12.18769752       2.47976557       6.29051466      28.08600001      -1.26422785       0.34312460      -0.12050596       93        1       2.40000000       2.40000000
Si       4.47698767       5.52219884       5.72947084      28.08600001      -0.02093890      -0.50519008      -1.36728259       94        1       2.40000000       2.40000000
Si      18.08089235       4.24368144      21.38346470      28.08600001       0.05678679      -0.19106743       1.24278245       95        1       2.40000000       2.40000000
Si      18.04076505      15.47918120       6.03853962      28.08600001      -0.32776107      -0.40521134       0.61743884       96        1       2.40000000       2.40000000
Si       7.33217093      14.54640116       1.67051292      28.08600001      -0.98699344      -0.36444802       0.40625663       97        1       2.40000000       2.40000000
Si      15.68661903       0.78003661      22.11272392      28.08600001      -0.27481938      -1.38016311      -0.62322664       98        1       2.40000000       2.40000000
Si      14.46966277      10.88804024       5.12586379      28.08600001       0.47426316      -1.30573139      -0.96033323       99        1       2.40000000       2.40000000
Si       7.63444119      12.60855375       4.23403742      28.08600001      -0.31543603      -0.55550596       0.93510744      100        1       2.40000000       2.40000000
Si      12.52652209      12.30990462      14.71101340      28.08600001      -0.56565502      -2.02510165      -0.87016454      101        1       2.40000000       2.40000000
Si      21.70080343      16.73615273      21.15002124      28.08600001       0.30104612      -0.43642928       1.79206884      102        1       2.40000000       2.40000000
Si       1.97937188      19.21368404      17.11164394      28.08600001      -1.15588023       0.87984206       0.26747076      103        1       2.40000000       2.40000000
Si      11.18506424       8.96361873       0.66901685      28.08600001       1.01592776       1.04393503      -0.22158927      104        1       2.40000000       2.40000000
Si      19.41403591      20.41408768      12.07379028      28.08600001       0.85543297       0.52353521       0.25056551      105        1       2.40000000       2.40000000
Si       6.89263648       1.90857328      17.11237737      28.08600001      -0.14983789       0.67931517       1.29147739      106        1       2.40000000       2.40000000
Si      13.23078773       9.35005332      13.71826897      28.08600001      -0.91484441      -0.77745457       0.75244714      107        1       2.40000000       2.40000000
Si       5.71621133      21.11487627      16.92578856      28.08600001      -1.16796530      -0.50881540       0.56472841      108        1       2.40000000       2.40000000
Si      13.01205583      18.69092252       1.16672969      28.08600001       0.02656114      -0.18332601      -0.00213218      109        1       2.40000000       2.40000000
Si      20.19389602       2.49957120      15.34290586      28.08600001      -0.76595801       0.65341131      -1.28841994      110        1       2.40000000       2.40000000
Si       4.69174158       6.17466430      10.32633385      28.08600001      -0.38857785      -2.13549304       1.38238268      111        1       2.40000000       2.40000000
Si       9.55860066       6.28942526      13.63319011      28.08600001       0.72809396      -0.91400111      -0.53543621      112        1       2.40000000       2.40000000
Si       8.22962194      -0.30238818      11.78040289      28.08600001      -0.26813884      -1.33523433       0.19941618      113        1       2.40000000       2.40000000
Si      15.83060054      15.57287040       0.14381422      28.08600001       2.21217203       0.19258423      -0.38905753      114        1       2.40000000       2.40000000
Si      15.52796805      13.69904404       5.88052374      28.08600001       0.14346900      -0.39610593       0.27120479      115        1       2.40000000       2.40000000
Si      11.07822432      19.74267561       8.87573767      28.08600001      -0.38853586       0.64830805       1.36471308      116        1       2.40000000       2.40000000
Si       5.46200200      20.22963979       3.41347420      28.08600001      -0.38307885      -0.55308023       1.20760616      117        1       2.40000000       2.40000000
Si      15.57278018      21.18193253      14.74147873      28.08600001       0.71138717       0.59994498      -0.78643860      118        1       2.40000000       2.40000000
Si       5.75740048       7.34284441       1.71188554      28.08600001       1.20261000       1.22474764       0.14806927      119        1       2.40000000       2.40000000
Si       4.27409226      15.70067930       7.84470518      28.08600001       0.78881293      -0.17771919       0.27431811      120        1       2.40000000       2.40000000
Si       6.42600973      10.57154784      12.04041625      28.08600001      -0.49578166      -1.05835899      -0.04973036      121        1       2.40000000       2.40000000
Si       8.56526034      18.28086997       7.83834885      28.08600001       0.31758314      -0.12052276      -1.25948511      122        1       2.40000000       2.40000000
Si      15.71834807      17.31840884      17.01860962      28.08600001       1.52908603       0.19505800      -0.00707948      123        1       2.40000000       2.40000000
Si       5.14470585       9.40095939      18.84495480      28.08600001      -0.60710299      -0.82839331      -0.67966578      124        1       2.40000000       2.40000000
Si       0.57747864       9.59561714      21.74314048      28.08600001      -0.59531168       1.44283993       1.76399937      125        1       2.40000000       2.40000000
Si      11.90164544       6.14126937       9.73461606      28.08600001      -0.50679917      -0.37973257       0.32900084      126        1       2.40000000       2.40000000
Si      12.73632395       1.96765219      11.86971997      28.08600001       0.41981365       0.37614870      -1.45768242      127        1       2.40000000       2.40000000
Si       3.07463058      19.51171663       1.64002262      28.08600001      -0.54619793      -0.26967708       0.32833733      128        1       2.40000000       2.40000000
Si      20.44734377      19.94133933       0.04135873      28.08600001       0.98202594       0.39969167      -0.09795863      129        1       2.40000000       2.40000000
Si       6.96402993       2.14502913       1.10834439      28.08600001      -1.01477768       1.75214511      -0.86352816      130        1       2.40000000       2.40000000
Si      12.05373252      16.53893237      15.05177246      28.08600001      -0.43469520      -0.33105069       0.31198033      131        1       2.40000000       2.40000000
Si       5.31324794      10.71314505       8.19205336      28.08600001      -0.80476821       2.19002622       1.09832923      132        1       2.40000000       2.40000000
Si       2.80332545       3.97825873      13.25438981      28.08600001       0.53438441      -0.23515379       0.31038593      133        1       2.40000000       2.40000000
Si      11.02607640      14.62948177       6.56332021      28.08600001      -1.37231446       1.23856476      -1.04169621      134        1       2.40000000       2.40000000
Si       4.04588989      17.93494646      20.89410373      28.08600001      -0.44637795       0.75315558       1.38607072      135        1       2.40000000       2.40000000
Si      14.79487555       8.71829434      20.80380053      28.08600001       1.54159435       0.94255550       0.90481827      136        1       2.40000000       2.40000000
Si       3.87464855      11.73526838      10.82737828      28.08600001      -0.06803652      -0.52734682      -0.36530968      137        1       2.40000000       2.40000000
Si       6.59129687       9.25123484      14.77535773      28.08600001       0.59499512       1.05039940      -0.29436607      138        1       2.40000000       2.40000000
Si      10.99049931       8.40501950      11.69966397      28.08600001      -1.40633533       0.73910097       0.59546542      139        1       2.40000000       2.40000000
Si       2.77863756       1.01287050      21.31469996      28.08600001      -0.87056552       0.68416787      -0.77711421      140        1       2.40000000       2.40000000
Si       6.46951315      16.60302927      11.35971508      28.08600001       0.25367703      -0.21737435      -0.37639341      141        1       2.40000000       2.40000000
Si       1.98807589       3.94120983      20.55016695      28.08600001      -0.55653910      -0.62733356       0.45225076      142        1       2.40000000       2.40000000
Si       4.28795081      13.11024419      20.45857926      28.08600001       0.81812114      -0.07007744      -1.60196087      143        1       2.40000000       2.40000000
Si       0.39373249       7.82856202      19.42383275      28.08600001      -0.14689842       0.41319218       0.26560308      144        1       2.40000000       2.40000000
Si      18.71227302       9.46159807       8.39298800      28.08600001       0.00985995      -0.28741988      -1.42343355      145        1       2.40000000       2.40000000
Si      19.18438172      14.92189110      21.78877649      28.08600001       0.33355857       0.94849171      -0.62035801      146        1       2.40000000       2.40000000
Si       2.42662515      10.03033244       1.67447207      28.08600001       0.13592423       1.75597879      -0.24563244      147        1       2.40000000       2.40000000
Si      20.97742172      11.67660502       8.28024480      28.08600001      -1.02482538      -0.99508194       1.54503090      148        1       2.40000000       2.40000000
Si       1.56947962      14.05677334      21.72048056      28.08600001      -0.08443140       0.89192403      -0.49645531      149        1       2.40000000       2.40000000
Si       7.74341267       5.82249139      20.36287667      28.08600001      -0.18030509      -0.59193522       0.21406761      150        1       2.40000000       2.40000000
Si       7.12706137      17.90587930      20.71587601      28.08600001       0.28590269      -0.35601039       0.81138991      151        1       2.40000000       2.40000000
Si       3.02169689      14.74950869      10.37298257      28.08600001      -0.04293991      -0.62928676      -0.06750364      152        1       2.40000000       2.40000000
Si       0.64342599       0.16287832       1.03871791      28.08600001      -2.53161366      -0.24702625      -0.14913046      153        1       2.40000000       2.40000000
Si       7.93539024      10.91629648      18.84627620      28.08600001       1.45077547       0.43397257       0.78175718      154        1       2.40000000       2.40000000
Si      16.78800430       9.16514306      11.03680513      28.08600001       0.57920138       0.88310146       1.10880489      155        1       2.40000000       2.40000000
Si       6.40458446       4.59110316      15.85554404      28.08600001       0.85306393       0.07986358      -0.09647222      156        1       2.40000000       2.40000000
Si       4.10818289       2.90128746       1.48657119      28.08600001      -2.64296840       0.72371643       0.51890111      157        1       2.40000000       2.40000000
Si       9.24975408       8.12061384      19.12339382      28.08600001       1.76229150       0.35138506      -0.08747006      158        1       2.40000000       2.40000000
Si       7.74938721       5.08714823       0.92480054      28.08600001       0.57981984      -0.66390958      -1.74257216      159        1       2.40000000       2.40000000
Si      15.51821409      14.56098116      10.99408085      28.08600001       0.57092108      -1.34738412       1.66864236      160        1       2.40000000       2.40000000
Si      16.41962258       8.62336403       4.43825722      28.08600001       0.75063908       0.77989856      -0.18894555      161        1       2.40000000       2.40000000
Si      14.55916654      18.51824243       6.62790860      28.08600001       0.84440101      -1.25033753      -0.08653591      162        1       2.40000000       2.40000000
Si      11.39604709      14.78276281       9.57738654      28.08600001       0.76864121       0.18789645      -0.55178598      163        1       2.40000000       2.40000000
Si       0.48095230       5.29845077       1.01857572      28.08600001      -0.35726792       0.39387495      -0.55803847      164        1       2.40000000       2.40000000
Si       0.32142185       5.19950032       7.17339510      28.08600001       0.08271008       0.82172047      -1.62478580      165        1       2.40000000       2.40000000
Si      20.33552870      10.55394306       2.07547661      28.08600001       1.60923759       0.14997651       0.24102488      166        1       2.40000000       2.40000000
Si      21.79036179      17.60109712       8.59862402      28.08600001      -0.52099417       0.14509761      -0.26130990      167        1       2.40000000       2.40000000
Si      21.71691212       2.62299879       5.24400753      28.08600001      -0.81468268       0.51940560       0.60554219      168        1       2.40000000       2.40000000
Si      16.29507913      20.26316186      11.92946134      28.08600001       0.00342773      -0.11189081       0.15892870      169        1       2.40000000       2.40000000
Si       1.58966673       0.07471696      10.39969556      28.08600001      -0.37844139      -0.48165449       1.67365859      170        1       2.40000000       2.40000000
Si      12.48394983      21.11669347       6.44372863      28.08600001      -0.37045428       0.33411499       0.79308883      171        1       2.40000000       2.40000000
Si       7.81117521       1.59167860      14.14961215      28.08600001      -0.33419729       0.75393436       0.80866035      172        1       2.40000000       2.40000000
Si       9.88375649      16.89723173      21.61403112      28.08600001       0.12172935      -0.07342272       0.43366635      173        1       2.40000000       2.40000000
Si      21.07300464       6.74370526      14.59568005      28.08600001       0.95214946      -0.05621861       1.03947659      174        1       2.40000000       2.40000000
Si       1.06465639      10.68054344      10.55863014      28.08600001       0.38334855       0.61123910       0.33223072      175        1       2.40000000       2.40000000
Si      17.68876308      12.27698689       3.05389431      28.08600001       0.53555933      -1.19435747       0.96221613      176        1       2.40000000       2.40000000
Si       4.81062969       0.86569907       5.42437269      28.08600001      -0.45017842       0.27583969      -0.13862318      177        1       2.40000000       2.40000000
Si      14.90643527       4.23807257      12.82020313      28.08600001       0.70118323      -2.02872083       0.66414623      178        1       2.40000000       2.40000000
Si       9.12346594      17.08163626       2.40367824      28.08600001      -0.82644254      -0.53793103       1.41531254      179        1       2.40000000       2.40000000
Si      17.16103395      20.18725498       6.96259313      28.08600001       0.03416917      -0.27319352      -0.33233860      180        1       2.40000000       2.40000000
Si      20.32928903       7.42333275       2.20710977      28.08600001       1.20562316       0.79037392       0.60814284      181        1       2.40000000       2.40000000
Si       3.13514176      13.88033682      17.69819061      28.08600001       2.02428678      -1.15968388       0.60394000      182        1       2.40000000       2.40000000
Si      19.57203134      16.45835132      10.20761685      28.08600001       0.65582987      -0.36316332      -1.12345338      183        1       2.40000000       2.40000000
Si      19.26276022       1.97654582      19.48141177      28.08600001      -0.21955621      -1.53447417       0.94140538      184        1       2.40000000       2.40000000
Si       8.22944157      19.88099730       2.43709990      28.08600001       1.23532720       0.58141200      -1.07998008      185        1       2.40000000       2.40000000
Si       8.32729273      18.55232436      12.82942085      28.08600001       1.69093533       1.13825618       0.27236647      186        1       2.40000000       2.40000000
Si       4.45009127      15.23814412       2.44707567      28.08600001       0.54251665      -0.21168130      -1.04339954      187        1       2.40000000       2.40000000
Si       7.94220640       9.44517059       4.68868127      28.08600001       1.30452649       1.15103015       0.71381526      188        1       2.40000000       2.40000000
Si      20.46526012      11.81798649      12.35884503      28.08600001      -0.22114817      -0.03218147      -0.77970736      189        1       2.40000000       2.40000000
Si       5.15349268       7.09452082      16.76385222      28.08600001       0.47151070      -0.41955696      -0.65478562      190        1       2.40000000       2.40000000
Si      12.41163546      12.86103293      19.00499924      28.08600001      -0.84476810       0.03947860      -1.34278234      191        1       2.40000000       2.40000000
Si       7.39659149      13.26665058      20.85024436      28.08600001       0.13606749       0.07145971       1.12549772      192        1       2.40000000       2.40000000
Si      12.49963149       7.47307648      19.00103484      28.08600001       0.39443066      -0.12549366      -1.65802768      193        1       2.40000000       2.40000000
Si       8.49601944       9.33155424      10.18949155      28.08600001       0.21384168      -0.19105708      -0.63052186      194        1       2.40000000       2.40000000
Si      21.64904949      13.75832328      14.49065728      28.08600001      -1.39030987       0.40908286      -2.55913049      195        1       2.40000000       2.40000000
Si      12.04212297       9.80431691       3.55732753      28.08600001      -0.60338748       0.26126028       0.73576167      196        1       2.40000000       2.40000000
Si      18.42854412       7.18884121       6.38478903      28.08600001      -0.13401260       0.13514604       0.00167441      197        1       2.40000000       2.40000000
Si      14.98894285       3.73651087      21.21945872      28.08600001       0.30050710      -0.34448470      -0.84312402      198        1       2.40000000       2.40000000
Si       9.57874381      10.22904909       7.24186806      28.08600001      -0.44427746      -1.76697610       0.74934005      199        1       2.40000000       2.40000000
Si       7.99442245       2.93600006      19.60419097      28.08600001       0.13335726      -0.04637684       0.48202547      200        1       2.40000000       2.40000000
Si      11.87790896      13.46137459       1.57340624      28.08600001       0.89291654       1.43554371      -0.08398237      201        1       2.40000000       2.40000000
Si       1.64994905       2.07686012      15.51486069      28.08600001      -0.02993755       0.61936696      -0.59515950      202        1       2.40000000       2.40000000
Si       7.61847895       4.68385468       5.29285104      28.08600001       0.47485026      -0.64888908       0.01678229      203        1       2.40000000       2.40000000
Si      12.26409611       6.67707043       3.98364817      28.08600001      -1.23165081       1.87816044      -0.09048840      204        1       2.40000000       2.40000000
Si      13.58014488      15.90483793       5.46240766      28.08600001      -0.02163857       0.41185117       0.56024971      205        1       2.40000000       2.40000000
Si       7.94922976      12.61868232       8.36838114      28.08600001       0.15755364       0.70837005      -0.09136236      206        1       2.40000000       2.40000000
Si       1.91989266      11.71913207      15.86852220      28.08600001       0.36421158      -0.59056880       0.63604040      207        1       2.40000000       2.40000000
Si       9.31788388       8.37538468      15.99893997      28.08600001       0.46789069      -0.31101325       0.87345076      208        1       2.40000000       2.40000000
Si      10.62829752       4.60893708       2.16454258      28.08600001       0.29302004       0.34276139       2.33454418      209        1       2.40000000       2.40000000
Si      15.87980207      17.92208690      21.58870803      28.08600001       0.49569404      -0.48462255       0.39515857      210        1       2.40000000       2.40000000
Si      13.54636203       2.51849291       9.00469632      28.08600001      -0.43784744      -0.47315278      -1.79473886      211        1       2.40000000       2.40000000
Si      13.05476410      17.32914563       9.05600357      28.08600001       0.70659629       0.06296005      -0.18623752      212        1       2.40000000       2.40000000
Si      16.07953174      20.40541544      19.74408611      28.08600001      -0.86301215      -0.23938910       0.55016520      213        1       2.40000000       2.40000000
Si       9.80512334       0.60652960      20.45313966      28.08600001       0.36442788      -0.17473802       0.24426504      214        1       2.40000000       2.40000000
Si      13.75281791       1.02851968       2.55365794      28.08600001       1.04939646      -0.43600449       1.11081507      215        1       2.40000000       2.40000000
Si      15.02043034      17.55736906      11.34132013      28.08600001       0.75224033       0.60476983       0.36449845      216        1       2.40000000       2.40000000
Si      19.46300116      14.39587165      18.82842116      28.08600001      -0.51849057       1.10066822      -1.54037866      217        1       2.40000000       2.40000000
Si       9.58188083       4.08423131      10.10959125      28.08600001      -1.64205931      -0.09688978       0.19835763      218        1       2.40000000       2.40000000
Si       3.53175170      10.66277920       5.66467723      28.08600001       0.29063332      -0.36184618       0.70949677      219        1       2.40000000       2.40000000
Si      15.81616710       6.82485822       7.77838192      28.08600001      -0.59449964       0.34432420      -0.70406380      220        1       2.40000000       2.40000000
Li      10.03492849      13.88534799      21.63894213       6.94100000       0.26674107       0.00770187       0.18101759      221        3       0.60000000       0.60000000
Li      13.83011881       9.70260279      17.39247601       6.94100000      -1.08547302       0.35099885       0.31432107      222        3       0.60000000       0.60000000
Li       6.55981694       5.39276588      12.78450784       6.94100000       0.05874717      -0.64599543      -0.35230787      223        3       0.60000000       0.60000000
Li      10.24315251       1.42440143       1.91854564       6.94100000      -0.69559886      -0.44906899      -0.14047041      224        3       0.60000000       0.60000000
Li      11.95013344      21.51548703       0.18011126       6.94100000       0.37275623       0.14284205      -0.09734822      225        3       0.60000000       0.60000000
Li      17.67606975      12.37070791      12.42766265       6.94100000      -0.00416401       0.24630328       0.38546555      226        3       0.60000000       0.60000000
Li      15.05736791      14.45844094      18.93643298       6.94100000      -0.15660638       0.30871597       0.43375423      227        3       0.60000000       0.60000000
Li      10.52471004      16.25332664      12.03478121       6.94100000      -0.25664990      -0.33987859       0.31066682      228        3       0.60000000       0.60000000
Li      17.87518359      19.37746791      15.23094408       6.94100000       0.29213281      -0.42605013      -0.27918227      229        3       0.60000000       0.60000000
Li      20.97964862      13.01265232       0.27832066       6.94100000      -0.29680585       0.35646036       0.11824936      230        3       0.60000000       0.60000000
Li       4.32240518      11.31468657      13.99859869       6.94100000      -0.65650819      -0.55317007      -0.08680554      231        3       0.60000000       0.60000000
Li      21.02184304       0.77091515      17.51156987       6.94100000      -0.30162916      -0.47932577       0.01393714      232        3       0.60000000       0.60000000
Li       5.39242276      15.53289765      22.00043428       6.94100000       0.24027038      -0.12270930      -0.18988235      233        3       0.60000000       0.60000000
Li      20.35187985      21.13991234      14.72215965       6.94100000      -0.95239849      -0.09171561      -0.15025860      234        3       0.60000000       0.60000000
Li      12.28925787       5.74582627       0.22167431       6.94100000       0.20597079      -0.41105045      -0.45702264      235        3       0.60000000       0.60000000
Li      15.83017959      10.38238497       1.86948036       6.94100000      -0.08923933      -0.41573583       0.26317879      236        3       0.60000000       0.60000000
Li      19.59050756      12.74892203       5.30403494       6.94100000       0.05257615      -0.01696928      -0.01845448      237        3       0.60000000       0.60000000
Li      17.99461235      14.87034851      12.27450062       6.94100000      -0.33262107       0.48114578       0.37979373      238        3       0.60000000       0.60000000
Li      21.25532143      14.65392150       5.97494767       6.94100000      -0.11165102      -0.52079400       0.61409660      239        3       0.60000000       0.60000000
Li      18.45256296      19.36880618       9.58897769       6.94100000       0.38167706      -0.23819687       0.52136000      240        3       0.60000000       0.60000000
Li      19.28278549       4.61923656       4.89790921       6.94100000      -0.08678315      -0.05115183       0.61929576      241        3       0.60000000       0.60000000
Li      11.59651254       2.61657944       0.30573629       6.94100000       1.04588160      -0.82364790       0.24161157      242        3       0.60000000       0.60000000
Li      19.37337427      11.67456018      15.63926043       6.94100000      -0.25791356      -0.43469652       0.19383646      243        3       0.60000000       0.60000000
Li       9.25969572       6.80235326       3.57811395       6.94100000      -0.28711760      -0.02312299      -0.50410236      244        3       0.60000000       0.60000000
Li       9.09197810       6.73894637       6.40192807       6.94100000      -0.56272162       0.27160816       0.14648168      245        3       0.60000000       0.60000000
Li       7.88754990      10.77813032      22.07698790       6.94100000       0.00568947       0.28749885      -0.70096169      246        3       0.60000000       0.60000000
Li      20.54122710      -0.13811347      10.24288806       6.94100000       0.14456729       0.03795463      -0.23453567      247        3       0.60000000       0.60000000
Li       0.38532997       2.76537182      10.73357760       6.94100000      -0.57803651      -0.92799381       0.09953022      248        3       0.60000000       0.60000000
Li       9.68075123      15.07800695      19.34039055       6.94100000       0.38903676      -0.04028919      -0.71599887      249        3       0.60000000       0.60000000
Li       6.37672573      18.22050644       5.92105671       6.94100000       0.61886043      -0.32498360      -0.32723009      250        3       0.60000000       0.60000000
Li      10.09417604      11.92528855      11.41137691       6.94100000      -0.36824937       0.00145116       0.04868080      251        3       0.60000000       0.60000000
Li      18.02951083      -0.12119614      16.18438047       6.94100000       0.16652578      -0.50271332      -0.17828603      252        3       0.60000000       0.60000000
Li      16.29185811      20.93639405       3.76027578       6.94100000      -0.10939944       0.37188213      -0.15537130      253        3       0.60000000       0.60000000
Li       7.06537705       8.21954291       7.20095718       6.94100000       0.00410557      -0.19840112      -0.92816594      254        3       0.60000000       0.60000000
Li      13.99883156       6.56724455      22.15967808       6.94100000       0.27680082      -0.24056118      -0.45196322      255        3       0.60000000       0.60000000
Li       7.97645474      20.46526773       9.20246257       6.94100000      -0.45928803       0.53390581      -0.18792358      256        3       0.60000000       0.60000000
Li      12.69781603      20.73439276       3.30412267       6.94100000      -0.06777128      -0.22081452      -0.12061551      257        3       0.60000000       0.60000000
Li      19.62637428       8.08985593      10.92942812       6.94100000       0.32419644       0.24021265       0.66726033      258        3       0.60000000       0.60000000
Li       3.90795471      17.28018927       4.76581059       6.94100000      -0.31667498      -0.13615489       0.34676072      259        3       0.60000000       0.60000000
Li       9.22442788       5.04218054      17.78845921       6.94100000      -0.04733366       0.49259401       0.33892029      260        3       0.60000000       0.60000000
Li      18.27530499       2.73790896       2.88273601       6.94100000       0.49673856       0.35319515      -0.06531820      261        3       0.60000000       0.60000000
Li       2.47683242       9.28173444      17.81802310       6.94100000       0.24727002       0.03011715      -0.27698188      262        3       0.60000000       0.60000000
Li      21.71163600      14.61184369       8.97125198       6.94100000      -0.13149270      -0.28343706       0.72204336      263        3       0.60000000       0.60000000
Li      10.31288756       0.44825071      15.26634711       6.94100000       0.09606720      -0.67632409      -0.45008696      264        3       0.60000000       0.60000000
Li       5.41400081       4.80130193      18.66463309       6.94100000      -0.10140281       0.30261898      -0.13130121      265        3       0.60000000       0.60000000
Li      14.65577791      11.90596132      17.34782679       6.94100000       0.48809097      -0.12414493       0.01320155      266        3       0.60000000       0.60000000
Li       2.34083345      13.53838419       7.26461281       6.94100000      -0.14450793       1.00026256       0.00995264      267        3       0.60000000       0.60000000
Li      12.42516321      15.58219333      20.92586798       6.94100000       0.00543737       0.79125104       0.35025641      268        3       0.60000000       0.60000000
Li       0.79835786       9.82112862       4.40286935       6.94100000       0.29608009       0.70379402       0.56369206      269        3       0.60000000       0.60000000
Li      11.09888567      10.71241005      17.28988676       6.94100000      -0.35435240      -0.41122547       0.47248321      270        3       0.60000000       0.60000000
Li       6.40603639      15.17669746       5.72664276       6.94100000       0.40394290      -0.00488535       0.27901906      271        3       0.60000000       0.60000000
Li       3.52839337       7.00472329      19.90688855       6.94100000      -0.65719778       0.57736382      -0.93023715      272        3       0.60000000       0.60000000
Li       3.74308398      18.19742537      13.42097596       6.94100000      -0.10663085       0.34360809       0.29188947      273        3       0.60000000       0.60000000
Li      15.13381770      20.40295522       1.88236568       6.94100000       0.58225562      -0.03036939       0.53028587      274        3       0.60000000       0.60000000
Li      18.70074393       1.87345685       0.02994062       6.94100000      -0.17927373      -0.49174814       0.24936418      275        3       0.60000000       0.60000000
Li       0.65916751       9.79816548       6.59720038       6.94100000      -0.73763438       0.03920538      -0.59498790      276        3       0.60000000       0.60000000
Li       6.96707368       7.26513613      12.16690462       6.94100000       0.26123497       0.05707020      -0.16905061      277        3       0.60000000       0.60000000
Li      13.68246295      16.21306627      18.59730687       6.94100000       0.20839169       0.39052422       0.64161798      278        3       0.60000000       0.60000000
Li       8.85818811      14.09603494      10.89751492       6.94100000       0.05137286       0.32644234      -0.28635050      279        3       0.60000000       0.60000000
Li       5.58576012       3.94242162      20.86615591       6.94100000      -0.03286329       0.65758539      -0.02111948      280        3       0.60000000       0.60000000
Li      11.19973669      17.41514334      17.77489806       6.94100000      -0.40317857       0.56203738       0.55342399      281        3       0.60000000       0.60000000
Li       5.83933346      19.96648521       7.67507164       6.94100000       0.65954279       0.35155451      -0.04282213      282        3       0.60000000       0.60000000
Li      13.15466172      -0.39518666      20.36583762       6.94100000      -0.38098509      -0.23917159      -0.47392811      283        3       0.60000000       0.60000000
Li      17.39850412       6.36624881      10.61537067       6.94100000       0.64796998      -0.19208645       0.55706056      284        3       0.60000000       0.60000000
Li       1.90345240       7.66466383       3.35981741       6.94100000       0.34783877      -0.04354453       0.34601960      285        3       0.60000000       0.60000000
Li      20.27368941       9.69949707      14.45979685       6.94100000      -0.38097178      -0.03685402      -0.23335813      286        3       0.60000000       0.60000000
Li      20.36834842      10.57817460       5.29583760       6.94100000       0.90283266      -0.02072444      -0.20780915      287        3       0.60000000       0.60000000
Li       9.58778460       4.65235489      15.61557520       6.94100000       0.59314264       0.04434214      -0.65077577      288        3       0.60000000       0.60000000
Li      19.46511116       0.70717300       3.27977774       6.94100000      -0.33276674      -0.13180759       0.91417883      289        3       0.60000000       0.60000000
Li       4.84120483       6.41690523      13.58687325       6.94100000       0.31497258      -0.45266865      -0.02826851      290        3       0.60000000       0.60000000
Li      16.03861330      10.08439718       7.49898644       6.94100000      -0.03596101       0.38589423       0.45689404      291        3       0.60000000       0.60000000
Li       4.69477409       1.93615157      19.26859072       6.94100000      -0.59700112       0.16675092      -0.10036961      292        3       0.60000000       0.60000000
Li      17.24832131       0.48795751       2.02042564       6.94100000      -0.43160245      -0.29345544      -0.23879005      293        3       0.60000000       0.60000000
Li      10.88383328      14.14647656      13.00237585       6.94100000       0.41930466       0.28868981       0.10402452      294        3       0.60000000       0.60000000
Li      17.31374678      16.73411941       8.78562195       6.94100000       0.34887324       0.15284888       0.26511888      295        3       0.60000000       0.60000000
Li      12.15665847       8.68944781      16.12234188       6.94100000       0.25948659       1.05789775       0.14912353      296        3       0.60000000       0.60000000
Li       2.33577612      17.01263276       0.72681133       6.94100000      -0.17673190       0.04247407       0.13190600      297        3       0.60000000       0.60000000
Li       8.47992686      20.93034558      15.84779127       6.94100000       0.59370413       0.07979491      -0.17265076      298        3       0.60000000       0.60000000
Li       5.66656602      12.42524922       1.89098347       6.94100000      -0.10760035       0.56779852       0.02503079      299        3       0.60000000       0.60000000
Li       5.41764338      13.04705868       6.75050134       6.94100000      -0.05846356       0.30665332      -0.46543362      300        3       0.60000000       0.60000000
Li       2.71555877       9.56992525      13.67400082       6.94100000       0.12417388       0.25301740       0.07996254      301        3       0.60000000       0.60000000
Li      15.64198576      12.50556353      20.19259073       6.94100000       0.35360525       0.32104055       0.17860611      302        3       0.60000000       0.60000000
Li      18.54675713       8.33724225      13.60493865       6.94100000      -0.26552784      -0.37053292       0.18680412      303        3       0.60000000       0.60000000
Li       7.38119891       1.72518955       3.72534821       6.94100000      -0.19706619      -0.45095854       0.47219394      304        3       0.60000000       0.60000000
Li       4.93592299      11.27929003      16.76342878       6.94100000      -0.86606274      -0.09638332       0.51784865      305        3       0.60000000       0.60000000
Li       2.75248707      11.02412640      19.53206203       6.94100000      -0.06398214       0.31192686       0.72828461      306        3       0.60000000       0.60000000
Li       6.13342409      17.27843636       3.89795215       6.94100000      -0.15386977      -0.16490067      -0.77895827      307        3       0.60000000       0.60000000
Li       9.12557512      12.47614088       1.25627207       6.94100000       0.94898130      -0.36950134       0.62309085      308        3       0.60000000       0.60000000
Li      16.18015667       7.85783243       1.29923954       6.94100000       0.26730928       0.12185033      -0.06877995      309        3       0.60000000       0.60000000
Li       3.82215932      17.12623974      15.60920325       6.94100000       0.32297124       0.54476139      -0.10387394      310        3       0.60000000       0.60000000
Li      21.22053163       4.00013477      18.53443628       6.94100000      -0.37541832      -0.18267277      -0.20500968      311        3       0.60000000       0.60000000
Li      10.08067575       2.50927555      16.97547042       6.94100000      -0.03747228       0.04061741      -0.31963710      312        3       0.60000000       0.60000000
Li      17.45894572      11.22515238       6.15872825       6.94100000       0.50494685      -0.12957849      -0.79113869      313        3       0.60000000       0.60000000
Li      15.08623691      12.85918878       1.34809519       6.94100000      -0.06427694       0.07390062       0.22743126      314        3       0.60000000       0.60000000
O        9.00532294       9.73126213      19.21514743      15.99940000       0.29039252      -0.43755670      -1.39077984      315        2      -1.20000000      -1.20000000
O       14.64067784       2.38832307       3.18700443      15.99940000       0.09109161      -0.40966330      -0.63345717      316        2      -1.20000000      -1.20000000
O        0.76332892      16.35460064       2.58829384      15.99940000       0.12908900      -0.56317025      -1.16748648      317        2      -1.20000000      -1.20000000
O        5.08070452       9.30387208      20.46515384      15.99940000       0.56164496      -0.41144424      -0.40293775      318        2      -1.20000000      -1.20000000
O        1.16349753       6.63467335      11.20244894      15.99940000      -0.50010015       0.39105228       0.24454413      319        2      -1.20000000      -1.20000000
O       16.11710663      12.07925914      13.99557417      15.99940000      -0.47471169       1.01413648       0.64976591      320        2      -1.20000000      -1.20000000
O       21.02772089       4.66600877      10.83920839      15.99940000      -1.54403714      -0.32592828       0.79322914      321        2      -1.20000000      -1.20000000
O        4.21819134      13.56583346       2.63996119      15.99940000      -0.21741375       1.10711851      -0.80988927      322        2      -1.20000000      -1.20000000
O        6.23931050       5.54433647      20.62502114      15.99940000       0.34748788       0.24713811      -0.81893429      323        2      -1.20000000      -1.20000000
O        3.43036858      18.53163093      11.26709878      15.99940000       0.32957741      -0.84386008       0.10335060      324        2      -1.20000000      -1.20000000
O        6.43002353       0.92802056       5.55850774      15.99940000       0.16691099       0.25489661       0.58255678      325        2      -1.20000000      -1.20000000
O        6.54911505      10.13872955      18.42574343      15.99940000      -0.19707557       0.05243432       0.56017135      326        2      -1.20000000      -1.20000000
O        2.48933215      20.08134714      18.46582638      15.99940000       0.29391846      -0.36836726       0.01017520      327        2      -1.20000000      -1.20000000
O       16.01911630      12.66990265      18.38889327      15.99940000       1.53014692      -1.66376294       0.14982665      328        2      -1.20000000      -1.20000000
O        7.87186968      17.89983538      16.39928898      15.99940000      -0.12968147      -0.11111061       2.12452459      329        2      -1.20000000      -1.20000000
O       14.58431759      18.50711306      17.13616751      15.99940000       0.64672591      -0.13262853       1.50370497      330        2      -1.20000000      -1.20000000
O       13.80988079      11.57072307      11.05924245      15.99940000       0.26115457      -0.13387676      -0.18587222      331        2      -1.20000000      -1.20000000
O        9.36104691      13.27634163      12.69932939      15.99940000       0.67530280      -0.40985023      -0.08038087      332        2      -1.20000000      -1.20000000
O        9.71535442      18.46410138      13.67659872      15.99940000       0.42270077       0.93634054       0.12623187      333        2      -1.20000000      -1.20000000
O       20.71849426       5.28057331       8.24757804      15.99940000      -1.31388124       0.88175426       0.41547105      334        2      -1.20000000      -1.20000000
O       16.80602917      14.46321612       5.36628571      15.99940000      -0.23622534       0.62063726      -0.19676209      335        2      -1.20000000      -1.20000000
O       12.48865726       0.32200777      11.93241241      15.99940000      -0.00227184      -0.78298465      -1.10079032      336        2      -1.20000000      -1.20000000
O       12.82727752       1.21896860      18.73397808      15.99940000       0.19277670      -1.15779042      -0.51960435      337        2      -1.20000000      -1.20000000
O       18.25683960      13.86111962       2.91156924      15.99940000       1.67053495       1.07887939       0.12285130      338        2      -1.20000000      -1.20000000
O       16.32081317       8.90819337       2.94243008      15.99940000      -0.56622962      -1.21809687       0.18613381      339        2      -1.20000000      -1.20000000
O       13.57610923      10.68102815       6.54726692      15.99940000      -0.66628421      -1.07203877       1.89358503      340        2      -1.20000000      -1.20000000
O        0.73675767      11.32891668       8.99892949      15.99940000      -0.90258055      -0.30073675      -0.70058629      341        2      -1.20000000      -1.20000000
O       21.28273897       5.70446046      13.36092681      15.99940000      -0.13148334       0.76143989      -0.04144855      342        2      -1.20000000      -1.20000000
O       11.15300092       1.13585425      16.69572138      15.99940000       0.78895277       0.28336132      -0.13828763      343        2      -1.20000000      -1.20000000
O       19.41391756      19.51471218       1.17073862      15.99940000       0.19597845      -0.22399933      -1.17078594      344        2      -1.20000000      -1.20000000
O        3.82848133      15.79702474       9.41996262      15.99940000       0.20815398       0.63510264      -0.75029784      345        2      -1.20000000      -1.20000000
O       10.48931692       3.32435327       3.08996309      15.99940000       0.36964890       0.29925254       0.10180266      346        2      -1.20000000      -1.20000000
O        0.38523356       1.48150571       1.92803566      15.99940000      -0.09231258      -0.19275254       0.20049461      347        2      -1.20000000      -1.20000000
O       19.08024950      18.79037494       4.21283595      15.99940000      -0.37356848       1.00693342      -0.17696342      348        2      -1.20000000      -1.20000000
O        6.79654742      20.23680028      16.15614684      15.99940000       0.05259751       0.27417583      -0.51058084      349        2      -1.20000000      -1.20000000
O        5.70212413      11.44021023       0.33311696      15.99940000       0.11383271      -0.40583491      -0.11372334      350        2      -1.20000000      -1.20000000
O        0.84957633      17.35571461       7.24919792      15.99940000      -0.35090967       1.04971745      -0.31055537      351        2      -1.20000000      -1.20000000
O       13.61694224       6.20677528       3.34012135      15.99940000       0.24372843      -0.03723993      -0.11178058      352        2      -1.20000000      -1.20000000
O       17.42697891       1.62678036      13.27855776      15.99940000       0.48460872      -0.19823607      -0.37837428      353        2      -1.20000000      -1.20000000
O        2.47512386       2.79690879      14.31402356      15.99940000       0.78837912       0.78905617      -0.68548435      354        2      -1.20000000      -1.20000000
O       12.21581526       9.19101633      12.42328893      15.99940000      -1.15898719      -0.76498101      -0.68593756      355        2      -1.20000000      -1.20000000
O       12.76594250      10.69019764      14.65986043      15.99940000       0.74518873      -0.57004361       0.20965087      356        2      -1.20000000      -1.20000000
O       16.41466350       6.61263423      18.17516300      15.99940000      -0.60926188       0.29120165      -0.35006966      357        2      -1.20000000      -1.20000000
O       19.38488803       3.63104930      16.08451281      15.99940000       0.69087909       0.65866828       0.54162192      358        2      -1.20000000      -1.20000000
O        2.31965019      11.37099666      11.19769400      15.99940000       0.12851070       0.31737460       0.87657360      359        2      -1.20000000      -1.20000000
O        1.19959519      17.84833347       9.76863650      15.99940000      -0.29115092      -0.12758634       0.23099306      360        2      -1.20000000      -1.20000000
O        2.15492368      20.86647225       1.59633142      15.99940000      -0.05454245       1.60579439       0.89062351      361        2      -1.20000000      -1.20000000
O        0.33811769       1.03954994      10.41511183      15.99940000      -0.02588617      -0.10267541       1.80032463      362        2      -1.20000000      -1.20000000
O       17.05636385       9.81290752      14.82160279      15.99940000      -0.05070497       0.55676624      -0.68218930      363        2      -1.20000000      -1.20000000
O       20.45793627       5.98828087      15.92178322      15.99940000      -0.21121489      -0.84993266      -0.51975433      364        2      -1.20000000      -1.20000000
O       21.18508711       7.08919558       3.66907032      15.99940000      -1.05105705       0.66386079       0.89848831      365        2      -1.20000000      -1.20000000
O       17.68145607      12.69649550       9.33847879      15.99940000      -1.30489861      -0.23160350       0.80138602      366        2      -1.20000000      -1.20000000
O       13.46398726       5.96324362      10.20615203      15.99940000       0.40922412       0.44013061      -1.30193570      367        2      -1.20000000      -1.20000000
O       18.79663235       8.02540269       7.71656569      15.99940000      -0.48399833       0.31728370      -0.97065080      368        2      -1.20000000      -1.20000000
O       18.74030246       5.67028768      20.86608573      15.99940000      -1.33891386       1.02396091      -1.35009145      369        2      -1.20000000      -1.20000000
O       11.36839289       7.54685269      10.32511572      15.99940000       0.23156078      -0.53110124       0.71764900      370        2      -1.20000000      -1.20000000
O        4.85402549       0.97673096       9.51038762      15.99940000      -1.56967883      -0.02484653       1.05320539      371        2      -1.20000000      -1.20000000
O       12.62187930      15.81278021       9.19051478      15.99940000       0.55434853       0.43959423      -0.12391058      372        2      -1.20000000      -1.20000000
O        8.27003922       4.50720156      19.43921283      15.99940000      -0.37017737      -0.67887536      -0.01547992      373        2      -1.20000000      -1.20000000
O        7.01169182      20.61068372       3.08370277      15.99940000       0.00676085       0.59752106       0.05915020      374        2      -1.20000000      -1.20000000
O        7.31027089      17.92845263      19.10490745      15.99940000      -0.39024270      -0.36022210      -1.81896404      375        2      -1.20000000      -1.20000000
O        8.47181757      20.42227819       0.90670830      15.99940000      -0.56549479      -0.09996176      -0.72310740      376        2      -1.20000000      -1.20000000
O       12.52385776       5.86557034      18.56158531      15.99940000       0.03691533      -1.39227575      -0.29582516      377        2      -1.20000000      -1.20000000
O        3.48056927       2.65740654       8.09631786      15.99940000      -0.15066153      -0.81235881       0.28192058      378        2      -1.20000000      -1.20000000
O       11.15292525      13.67271264      18.20038999      15.99940000      -0.96078634      -1.10813877       0.67150822      379        2      -1.20000000      -1.20000000
O       16.07750256       8.77902356      19.68268688      15.99940000       0.53325190       1.07445171       0.22791456      380        2      -1.20000000      -1.20000000
O       20.20121197      16.15011052      21.45975178      15.99940000       0.39809588       0.15675190      -0.25184295      381        2      -1.20000000      -1.20000000
O        1.01419547      14.12932368       1.06876300      15.99940000       0.82786406       0.58969031       0.54145986      382        2      -1.20000000      -1.20000000
O       18.69428939       4.14349005       9.68345373      15.99940000      -0.53435220       0.46522988      -1.03734898      383        2      -1.20000000      -1.20000000
O       12.56279098       2.84289573       7.77323077      15.99940000      -0.16176331       0.28236909      -0.05492765      384        2      -1.20000000      -1.20000000
O       11.93917807       8.30843141       4.13134666      15.99940000       0.99959026      -0.54285905       0.21197929      385        2      -1.20000000      -1.20000000
O       17.18250743      17.77875965      17.64181876      15.99940000      -0.27231483       0.66113468       0.73338494      386        2      -1.20000000      -1.20000000
O        2.33633046       0.37252072       8.99827719      15.99940000       1.40612884      -0.18472008       0.32469845      387        2      -1.20000000      -1.20000000
O        5.61348099      15.97132926      12.55356753      15.99940000      -0.84796388      -0.39366113       1.10998887      388        2      -1.20000000      -1.20000000
O       12.31689305      19.89875102       1.70865908      15.99940000       0.83201391       0.02724824      -0.81694379      389        2      -1.20000000      -1.20000000
O       17.29521636      21.34061695       5.75419554      15.99940000       0.03606237      -2.16611029      -0.10687049      390        2      -1.20000000      -1.20000000
O       12.54655546       0.84802612       6.26814016      15.99940000      -0.28668781      -0.26676973      -0.44946364      391        2      -1.20000000      -1.20000000
O        6.90268226       8.48761561       1.16581980      15.99940000      -0.61240894       0.70896842       0.35641109      392        2      -1.20000000      -1.20000000
O        8.75356994      -0.57123996      20.81093277      15.99940000      -0.46086933      -0.50110181       0.14166697      393        2      -1.20000000      -1.20000000
O        2.72624514       0.22239680      11.50938496      15.99940000       0.09985358      -0.09247214      -0.29552444      394        2      -1.20000000      -1.20000000
O       10.87352328       7.79292297      19.46990630      15.99940000      -0.84537180       0.06369502       0.22723866      395        2      -1.20000000      -1.20000000
O       15.37089898      10.22686800      16.70345970      15.99940000       1.19235239      -0.32827438      -0.18439623      396        2      -1.20000000      -1.20000000
O       17.40329050      18.06608881       2.52119011      15.99940000       0.38178546       0.24646968      -0.11677218      397        2      -1.20000000      -1.20000000
O       20.24557252      19.20516224      12.75871791      15.99940000      -0.02778248       0.08950042       0.19830179      398        2      -1.20000000      -1.20000000
O        9.01474845       9.43399836       5.91214621      15.99940000      -1.50706932      -0.84044668      -0.76901449      399        2      -1.20000000      -1.20000000
O       12.74265725      12.40209228       0.61051159      15.99940000       1.00923986       0.05581376       0.36881595      400        2      -1.20000000      -1.20000000
O       12.52239434       8.20077343       7.01426183      15.99940000       0.72452897       0.21073179       0.04849714      401        2      -1.20000000      -1.20000000
O        8.53033121      15.58496910       2.22268334      15.99940000       0.11831669       0.32017855      -0.26970873      402        2      -1.20000000      -1.20000000
O       14.53756581       3.74267229       9.35047845      15.99940000       0.19863312       0.76172199       0.11439082      403        2      -1.20000000      -1.20000000
O       15.79455590      -0.19917932      10.86234719      15.99940000      -0.55255924       0.78713493      -1.15636274      404        2      -1.20000000      -1.20000000
O        8.40313935       8.81917675       3.26793715      15.99940000      -0.67095499       0.11288854      -0.03009331      405        2      -1.20000000      -1.20000000
O        4.23501199      13.29809595      18.89072831      15.99940000       0.01700688       1.79531163       0.19984599      406        2      -1.20000000      -1.20000000
O       15.27676607       1.97664733      18.07162942      15.99940000      -0.73562084       0.38249376      -0.43549720      407        2      -1.20000000      -1.20000000
O       16.22843219       4.17637263      17.29699313      15.99940000       1.49009829       1.45144736      -1.37442730      408        2      -1.20000000      -1.20000000
O       13.65889421      16.27618737      15.05855523      15.99940000       0.07564203      -0.43911562      -1.22760166      409        2      -1.20000000      -1.20000000
O       15.01337321      15.56136427       1.60780071      15.99940000       0.39329130      -0.40822161       0.59240492      410        2      -1.20000000      -1.20000000
O       12.57155313       5.58202367      15.83128419      15.99940000       0.06545644      -0.76900194       1.42349604      411        2      -1.20000000      -1.20000000
O        6.25912909       2.30598683      11.19237640      15.99940000      -1.31535793      -0.89184252      -0.03780967      412        2      -1.20000000      -1.20000000
O        3.17807810      16.98303083      19.87440844      15.99940000      -0.18960759       0.45852693       1.10163690      413        2      -1.20000000      -1.20000000
O        3.76121387       4.31628482      18.38351044      15.99940000       0.55381523      -0.18983995      -0.52676731      414        2      -1.20000000      -1.20000000
O        2.20293002      17.61885662      17.49294811      15.99940000      -0.70499508      -0.63741577       0.09407621      415        2      -1.20000000      -1.20000000
O       22.11965998      19.64504097      16.84109658      15.99940000      -0.16464906      -0.16683735      -0.26918378      416        2      -1.20000000      -1.20000000
O       20.82543827       2.61491845       3.93460554      15.99940000       0.15339065       0.68224292       0.26088217      417        2      -1.20000000      -1.20000000
O        8.41863919      10.74766544       1.47800083      15.99940000      -0.73746989      -0.69519486      -1.26375335      418        2      -1.20000000      -1.20000000
O       14.18087267      17.71996611       8.03370014      15.99940000       0.53960374       1.12864965       0.46878847      419        2      -1.20000000      -1.20000000
O       16.28312446      12.22615871       2.37195052      15.99940000       0.03068423      -0.21580894      -1.47048857      420        2      -1.20000000      -1.20000000
O       11.80312809      18.19498864      15.21099795      15.99940000      -0.09972835      -0.01411730       0.08970244      421        2      -1.20000000      -1.20000000
O       14.49879179      20.70692799      15.75934881      15.99940000       0.53022427       0.51282455      -0.07792483      422        2      -1.20000000      -1.20000000
O       17.11471924       7.86184056      11.80747184      15.99940000       0.19794750       0.17364095       0.03056748      423        2      -1.20000000      -1.20000000
O        5.92649740      15.98866688       7.75837469      15.99940000       1.77090755       0.05212904       0.06477093      424        2      -1.20000000      -1.20000000
O       21.08008621       6.40543138      19.45413191      15.99940000      -0.46926788       0.14452976      -0.49503985      425        2      -1.20000000      -1.20000000
O       14.70530139      12.50068303       5.16321279      15.99940000      -1.33980206      -0.47105227       0.67775895      426        2      -1.20000000      -1.20000000
O        7.94470591       4.51447503      15.81107821      15.99940000       0.52074293      -0.43385041      -0.48401353      427        2      -1.20000000      -1.20000000
O        8.02356589       7.80997498      10.30785226      15.99940000       0.06181291      -0.11673243      -0.96215527      428        2      -1.20000000      -1.20000000
O       12.83263641      11.74267167      17.89691239      15.99940000       0.15908839       0.52276681       0.63028869      429        2      -1.20000000      -1.20000000
O        3.47521351       7.28726970      10.19443992      15.99940000      -0.41463209      -0.50990737       0.46421407      430        2      -1.20000000      -1.20000000
O        8.77404342      11.65768672       7.32113581      15.99940000       0.53122205       0.91074403       0.71851773      431        2      -1.20000000      -1.20000000
O       16.65928442      13.72049490      11.65627501      15.99940000       0.00234798       0.40602115      -0.00750748      432        2      -1.20000000      -1.20000000
O        3.46570327      15.90851868       1.52079810      15.99940000      -0.11021620       0.31212979      -0.38719622      433        2      -1.20000000      -1.20000000
O        3.27631519       4.75613441       4.95341033      15.99940000      -0.72803839       0.02013572       0.24251621      434        2      -1.20000000      -1.20000000
O       12.89854164       8.34205061      17.80640404      15.99940000       0.96043924      -0.41725294       0.12479557      435        2      -1.20000000      -1.20000000
O        5.00756478      11.34209786      11.99229796      15.99940000       0.05243433      -0.32983868       0.19560550      436        2      -1.20000000      -1.20000000
O       19.21252726       5.21442441      18.16122889      15.99940000       0.63274509       0.24715267      -1.41635989      437        2      -1.20000000      -1.20000000
O       11.73970125      18.29126963       8.58248383      15.99940000      -0.48694202      -0.01443850       0.05669662      438        2      -1.20000000      -1.20000000
O       20.26141623       7.97592248      14.15143385      15.99940000      -0.11823311       0.25488708       1.42639056      439        2      -1.20000000      -1.20000000
O       15.95641115       6.12203072       9.22001677      15.99940000       0.76678023       0.03914607       0.45353304      440        2      -1.20000000      -1.20000000
O       21.60889013       4.11916414       1.96250043      15.99940000      -1.05064211      -0.16775889      -1.63511090      441        2      -1.20000000      -1.20000000
O       11.72340087       9.74667046       2.00687454      15.99940000      -0.94413194      -0.16158079       0.01456452      442        2      -1.20000000      -1.20000000
O        5.94714839       0.65356708      17.57830682      15.99940000      -0.01432105      -0.42405765      -0.66540035      443        2      -1.20000000      -1.20000000
O       18.24997702       4.50791819       3.39575902      15.99940000       1.39886856       0.11660999       0.30505858      444        2      -1.20000000      -1.20000000
O        8.03953839      18.28262157       2.49468382      15.99940000      -0.02597464      -1.20728418      -0.19280515      445        2      -1.20000000      -1.20000000
O       19.04072920      14.89917081      10.30375617      15.99940000       0.31774265       0.13238207       0.25388384      446        2      -1.20000000      -1.20000000
O        9.27585462      12.83735265       4.08854895      15.99940000      -0.51543700      -0.16917586      -0.20124224      447        2      -1.20000000      -1.20000000
O        8.22136636       1.71379019       1.90058512      15.99940000      -1.39944112      -0.64546786      -0.17451346      448        2      -1.20000000      -1.20000000
O        5.95284922      15.42328086       1.58534075      15.99940000      -0.61719473      -1.15488214      -0.69304830      449        2      -1.20000000      -1.20000000
O       21.25990044      13.12050380      13.02089019      15.99940000      -0.64300642      -0.33555104       0.00729510      450        2      -1.20000000      -1.20000000
O       19.67905378      11.11490044      13.47870353      15.99940000       0.25939646       0.61708025      -0.89737476      451        2      -1.20000000      -1.20000000
O       12.37556703       6.01764209       5.50314868      15.99940000       0.66390155      -0.61090645       0.02860742      452        2      -1.20000000      -1.20000000
O       17.16218778       6.35780776       6.90515797      15.99940000       0.89394340       1.40717073      -0.11554727      453        2      -1.20000000      -1.20000000
O       20.08516356       8.94178333       1.88320501      15.99940000      -1.02763866       1.20792523       1.02262053      454        2      -1.20000000      -1.20000000
O        5.37442223      18.05869709      15.68116033      15.99940000      -0.15617630       0.14220672      -0.18528616      455        2      -1.20000000      -1.20000000
O       16.25052356       6.02695293       2.48606623      15.99940000      -0.34982258      -0.23080419      -1.05025172      456        2      -1.20000000      -1.20000000
O       15.55634173       7.22266736       4.60698570      15.99940000      -0.00704902       0.28038412      -1.04598567      457        2      -1.20000000      -1.20000000
O        6.58205239       0.79749311       0.16676375      15.99940000      -0.48395289      -0.30551570       0.02871845      458        2      -1.20000000      -1.20000000
O       19.61611980       2.18964375       1.63815868      15.99940000       0.39028850      -0.57108324      -0.87666498      459        2      -1.20000000      -1.20000000
O        7.85461512      17.21785964      12.02877040      15.99940000      -0.21583092      -0.32868220      -0.34502078      460        2      -1.20000000      -1.20000000
O        1.26479789      10.62080974      16.92542725      15.99940000       0.58927508       0.19055190       0.71212189      461        2      -1.20000000      -1.20000000
O       14.50337967      14.86048836       6.31008382      15.99940000       0.99697247       0.27775638       0.44012393      462        2      -1.20000000      -1.20000000
O       20.52945756       2.18328472      18.59949569      15.99940000       0.31025229       0.95466835      -1.81049446      463        2      -1.20000000      -1.20000000
O        6.58691243      13.53474141      16.80994882      15.99940000       0.43352167      -0.79285614      -0.09317774      464        2      -1.20000000      -1.20000000
O       15.27106050       9.32078932      10.56757762      15.99940000       0.19337352      -0.65331934      -1.01587236      465        2      -1.20000000      -1.20000000
O        8.22411437       3.41560190       4.37551451      15.99940000      -0.81277685       1.14407547       0.35495481      466        2      -1.20000000      -1.20000000
O       19.97011336       1.00168126      15.72104114      15.99940000       1.14110103       0.25508887      -0.36507672      467        2      -1.20000000      -1.20000000
O       13.62866179      15.44055263       3.93876582      15.99940000      -0.81966315      -0.50567409       1.24801198      468        2      -1.20000000      -1.20000000
O        8.44227701       5.32895694      21.77485612      15.99940000      -0.86528804      -0.24471007       1.48550770      469        2      -1.20000000      -1.20000000
O       11.57220683      20.78699466       5.07022812      15.99940000       1.23065055       1.21049412      -0.51782374      470        2      -1.20000000      -1.20000000
O        1.73221618       4.63616476       8.07246201      15.99940000       0.79372902       0.16361503       0.32841182      471        2      -1.20000000      -1.20000000
O        7.55279398       0.33805137      10.39773321      15.99940000       0.26496785       0.30996577      -0.47885650      472        2      -1.20000000      -1.20000000
O        4.24662029       2.24868186       4.87604749      15.99940000       0.50414162       1.30982159      -0.56811981      473        2      -1.20000000      -1.20000000
O       21.16737095      10.70724821       3.32487783      15.99940000      -0.27603213      -0.68208312      -0.38126087      474        2      -1.20000000      -1.20000000
O       12.71034831      19.92155855      20.72919410      15.99940000      -0.48431449       0.44669986       0.42736994      475        2      -1.20000000      -1.20000000
O       18.06328908      11.82023466       4.51257881      15.99940000       1.51660186       0.20158458       0.21014487      476        2      -1.20000000      -1.20000000
O        9.17775563      14.13937453      16.67086790      15.99940000      -0.64163473      -1.03993746      -0.29151332      477        2      -1.20000000      -1.20000000
O       21.11257814      11.34863132      18.72513032      15.99940000      -0.44769679      -0.71223318       0.37864364      478        2      -1.20000000      -1.20000000
O        4.50569828       7.17274309       5.57902577      15.99940000       0.27520664       0.89750729      -0.61138500      479        2      -1.20000000      -1.20000000
O        3.11762904      18.67498752       0.19862564      15.99940000       1.26362763       1.21612236       0.16178338      480        2      -1.20000000      -1.20000000
O        5.59064893       2.37815682       1.96508290      15.99940000      -0.62003826      -0.79098379       0.08869500      481        2      -1.20000000      -1.20000000
O       18.54220701       1.59332516       6.19018602      15.99940000       0.93746908       0.55295205      -1.38398272      482        2      -1.20000000      -1.20000000
O       20.09942123      10.29124892       8.73089077      15.99940000      -0.50077627      -0.10758765      -1.03293940      483        2      -1.20000000      -1.20000000
O        2.15926454      15.12602989      18.28656560      15.99940000      -0.38714906       0.66636864      -0.56804493      484        2      -1.20000000      -1.20000000
O       10.18277811      20.52427583      15.10171501      15.99940000       0.33693998       1.08079702       0.46806315      485        2      -1.20000000      -1.20000000
O       11.00218999      10.87193954       4.35204498      15.99940000      -0.42928428       0.53679591      -0.15208202      486        2      -1.20000000      -1.20000000
O        5.32188342       6.28382381      11.67833433      15.99940000       0.13811779       0.54747777      -0.38543471      487        2      -1.20000000      -1.20000000
O        7.58661836      16.70617390       4.96362423      15.99940000      -0.29450229      -1.02395289       1.02711614      488        2      -1.20000000      -1.20000000
O        9.98997804      17.39786465       1.05542663      15.99940000      -0.31391339      -1.38384632      -0.00629862      489        2      -1.20000000      -1.20000000
O        0.56295739      12.58320488      15.42661483      15.99940000      -0.38328173       0.08719663      -0.27102625      490        2      -1.20000000      -1.20000000
O       15.55808667       8.33683703       7.83276569      15.99940000      -0.09615316       0.37003991      -0.08253893      491        2      -1.20000000      -1.20000000
O       10.88132005       4.96303741      10.28119036      15.99940000       0.69239926      -0.37101919      -0.05337025      492        2      -1.20000000      -1.20000000
O       12.10254406      15.81180257       6.17137820      15.99940000      -0.19479060       0.28880743       0.29679022      493        2      -1.20000000      -1.20000000
O        6.79159607      15.92832686      17.59939844      15.99940000       0.31611550      -0.27552309      -1.12365807      494        2      -1.20000000      -1.20000000
O       15.11103357       2.29140035      21.95874245      15.99940000      -0.82313558       0.15224893       0.46805451      495        2      -1.20000000      -1.20000000
O       17.12055312      18.90000169       0.00214053      15.99940000      -0.75673158      -0.73727260      -0.39572590      496        2      -1.20000000      -1.20000000
O        9.39356323       3.23136500       8.77172809      15.99940000      -0.28683022      -0.54284797      -0.13092800      497        2      -1.20000000      -1.20000000
O       21.00747089      11.06772630       0.61765366      15.99940000       0.22941046      -0.20696137       0.64344640      498        2      -1.20000000      -1.20000000
O       11.31104894       4.35902474       0.78998747      15.99940000      -0.15310564       0.58722467       0.08088137      499        2      -1.20000000      -1.20000000
O        1.99602885       5.83563751       1.38852927      15.99940000      -0.47462095      -0.48310101      -1.01199389      500        2      -1.20000000      -1.20000000
O       15.74413521      18.91767361      20.33991718      15.99940000       0.35148188      -0.75052793       0.32758127      501        2      -1.20000000      -1.20000000
O       18.98472476      15.95651161      18.69013014      15.99940000       0.14368250      -0.51713377       0.09788899      502        2      -1.20000000      -1.20000000
O        2.52925418      15.28880327      11.82655881      15.99940000       0.65085659      -0.05953987      -0.22487248      503        2      -1.20000000      -1.20000000
O       15.76110439       9.88951469       5.25678626      15.99940000       0.25434396       0.10639501       0.71947357      504        2      -1.20000000      -1.20000000
O       19.78947060      19.73965763      20.89707997      15.99940000       0.46861396       0.26616262      -0.39168578      505        2      -1.20000000      -1.20000000
O        4.47472893       9.68195487       4.78735105      15.99940000      -0.10238592      -0.25466772       0.38198794      506        2      -1.20000000      -1.20000000
O       16.97769297       1.41288907       0.27619963      15.99940000       0.99463218      -0.83780698       0.51318288      507        2      -1.20000000      -1.20000000
O        6.69063518      13.68173491      13.11184347      15.99940000      -0.10580140      -0.79605980       1.17442080      508        2      -1.20000000      -1.20000000
O       16.56326123       4.05231565      20.79144640      15.99940000       0.68177679      -0.86192381      -0.83782701      509        2      -1.20000000      -1.20000000
O       12.24964612       1.23669636       2.35530545      15.99940000       0.86299122      -1.53505993      -0.28172613      510        2      -1.20000000      -1.20000000
O       13.20565704      17.41724650       2.19643009      15.99940000       0.18833910       0.20880841       0.35403362      511        2      -1.20000000      -1.20000000
O        1.11546825       7.10873496      15.04070252      15.99940000       0.29487439       0.42449137      -0.07624571      512        2      -1.20000000      -1.20000000
O       15.45945035       4.52819227       4.51046792      15.99940000       0.19133033      -0.26159832       0.25636565      513        2      -1.20000000      -1.20000000
O        6.35157743       9.18435830      13.13112697      15.99940000      -0.16965347       1.09104062      -0.92232021      514        2      -1.20000000      -1.20000000
O        6.77132696       8.52228890       5.14061196      15.99940000       0.94666704       1.16518897      -0.11366892      515        2      -1.20000000      -1.20000000
O        5.56078716      18.88215848       4.24131296      15.99940000       0.23813781       0.53210198      -1.30205829      516        2      -1.20000000      -1.20000000
O       11.41582488      15.91376873      13.79050697      15.99940000      -0.60838759       0.50008639       1.34214611      517        2      -1.20000000      -1.20000000
O        3.00914347      12.82000203      16.45480379      15.99940000      -0.22428078      -1.25322395       0.19557923      518        2      -1.20000000      -1.20000000
O       15.01587950       1.07677076      14.43999572      15.99940000      -0.53775536       0.46665856       0.05628413      519        2      -1.20000000      -1.20000000
O        3.51590552       0.19034700      20.04230920      15.99940000       0.30119180       1.27509790      -0.22360511      520        2      -1.20000000      -1.20000000
O       10.94319842      14.33856458       8.14442919      15.99940000       0.77013514      -0.67416450      -0.66865863      521        2      -1.20000000      -1.20000000
O        3.16519869       3.19285557       2.73837310      15.99940000       0.25003757      -1.24140993      -0.60568233      522        2      -1.20000000      -1.20000000
O       15.87540284       2.09639866       5.53807326      15.99940000       1.04709646      -0.27538712       0.19840978      523        2      -1.20000000      -1.20000000
O       14.49298020       0.64845888       1.12282602      15.99940000       0.20984239      -0.43668847      -0.36493741      524        2      -1.20000000      -1.20000000
O        8.92673334      21.10548063       5.72789877      15.99940000       0.62985633      -1.37615998      -1.02765993      525        2      -1.20000000      -1.20000000
O       10.22631510       4.73358346      13.59245751      15.99940000      -0.13731872      -0.45732374      -0.21247987      526        2      -1.20000000      -1.20000000
O       13.13716207       9.84663853       9.06228474      15.99940000       0.68712843       0.03026012       0.07236022      527        2      -1.20000000      -1.20000000
O       10.74306254       2.80059604       5.66695666      15.99940000      -0.42300248       0.41945027      -0.22867375      528        2      -1.20000000      -1.20000000
O       17.81717845      16.73028271       5.06453572      15.99940000      -0.61569401       0.30579656      -0.67991470      529        2      -1.20000000      -1.20000000
O       21.43726980      10.87274852      11.51796040      15.99940000      -1.01625563      -0.15611523      -0.01451358      530        2      -1.20000000      -1.20000000
O       13.31211707       3.11073974       5.27940237      15.99940000       1.38586904       0.64208533       0.34464247      531        2      -1.20000000      -1.20000000
O        8.15951239       7.25231989      19.91955157      15.99940000      -0.22369526      -1.76481745      -1.24172580      532        2      -1.20000000      -1.20000000
O        9.56570740       1.08049920       4.16881771      15.99940000      -0.94665818      -0.18013954      -0.57767470      533        2      -1.20000000      -1.20000000
O       13.75586674      19.94566107       6.54770054      15.99940000       0.47808673      -0.62340329       0.90163593      534        2      -1.20000000      -1.20000000
O        1.51567163      20.28630110      10.65519951      15.99940000      -0.60852205       0.04639469      -0.10803828      535        2      -1.20000000      -1.20000000
O        2.81000476      19.70532126      15.82824568      15.99940000       1.47729145       0.06956265       0.50670612      536        2      -1.20000000      -1.20000000
O       14.54508853       1.23850929       8.84357805      15.99940000       0.11386441      -0.34648417       0.83780563      537        2      -1.20000000      -1.20000000
O        4.89008141      21.42462780       4.33361731      15.99940000      -0.53534675      -0.25801838      -0.14780589      538        2      -1.20000000      -1.20000000
O       17.58239757       1.23238446       3.74813377      15.99940000       0.19455597      -0.25062563       0.22633340      539        2      -1.20000000      -1.20000000
O       13.60586657      17.72592618      10.56176780      15.99940000       0.15359148      -0.45393325      -0.86288981      540        2      -1.20000000      -1.20000000
O       20.97411148      14.03053275      18.54514453      15.99940000       0.15818656      -0.38204131      -0.33828081      541        2      -1.20000000      -1.20000000
O        4.97272552      20.31567924      18.11928191      15.99940000       0.18506664       0.46998440       0.39332769      542        2      -1.20000000      -1.20000000
O        1.92202010       7.77217016      19.38147134      15.99940000       0.66719465       1.38019153       0.28640674      543        2      -1.20000000      -1.20000000
O       18.94792701      16.45685344      16.14410352      15.99940000       0.11583731       0.38315494      -0.74444289      544        2      -1.20000000      -1.20000000
O       15.82884417      18.88601502      11.15175118      15.99940000      -0.44355885      -0.21136931      -0.73128570      545        2      -1.20000000      -1.20000000
O        0.94082600      18.32004687      12.32493143      15.99940000      -0.11594912      -0.10412977      -0.08390300      546        2      -1.20000000      -1.20000000
O       21.44143490       8.70566074      18.14809355      15.99940000       0.44630022      -0.67281306       0.33599503      547        2      -1.20000000      -1.20000000
O       17.44694367      15.78760362       0.18662848      15.99940000       0.24982074       0.32648357       0.48525254      548        2      -1.20000000      -1.20000000
O        2.74371420       2.48607289      20.67020734      15.99940000      -0.09159722      -0.29946691      -0.35163961      549        2      -1.20000000      -1.20000000
O       13.31434527      14.00570410      19.38642558      15.99940000       0.03898850       1.38238574       0.35431946      550        2      -1.20000000      -1.20000000
O       20.34860772      12.99790146       9.01153738      15.99940000       0.10518778      -0.06568371      -0.20652221      551        2      -1.20000000      -1.20000000
O       19.23553804      14.06360418      20.42882500      15.99940000       0.52532995       0.54912126       0.13864040      552        2      -1.20000000      -1.20000000
O        4.19301019       3.50838022      12.52976181      15.99940000      -1.20869311       0.24044176       0.34730669      553        2      -1.20000000      -1.20000000
O       19.69389121      14.68267768       0.89191422      15.99940000       0.00501199       0.02273351      -0.27618793      554        2      -1.20000000      -1.20000000
O       11.24435497      13.36655826       5.67215888      15.99940000       0.21549488       0.19422530       0.17125856      555        2      -1.20000000      -1.20000000
O        5.93302777       5.06718537       5.04804549      15.99940000      -1.06416188      -0.25248567       0.13876384      556        2      -1.20000000      -1.20000000
O       12.49815400      17.65172708      19.22904112      15.99940000      -1.14397400       0.66763413      -0.46359709      557        2      -1.20000000      -1.20000000
O        8.56287863      19.85522486      11.85430386      15.99940000       0.06096620      -0.34537821       0.34054025      558        2      -1.20000000      -1.20000000
O       14.68898694      19.11934766       0.70064877      15.99940000      -0.00180327       0.47789415       0.23763336      559        2      -1.20000000      -1.20000000
O       14.39841069       4.91189721      22.00936131      15.99940000       0.09419831      -0.58010726       0.24621276      560        2      -1.20000000      -1.20000000
O       21.82484651       2.82564025      15.50559501      15.99940000      -1.02861691       0.53745343       1.07716609      561        2      -1.20000000      -1.20000000
O       14.34822073       6.23229054       7.17996756      15.99940000      -0.82725640       0.40261197      -0.62646323      562        2      -1.20000000      -1.20000000
O        8.60910205      12.52356491       9.73783537      15.99940000       0.66668064       0.51534361      -0.18823636      563        2      -1.20000000      -1.20000000
O       17.15570967      20.61787201       2.04214714      15.99940000      -0.68631084       0.20577773      -0.57005519      564        2      -1.20000000      -1.20000000
O       19.70789275       6.43449736       5.77736329      15.99940000       0.14820227      -0.53411376      -1.60614536      565        2      -1.20000000      -1.20000000
O       21.54153299       8.47483668      20.78343699      15.99940000       0.22229229       0.45679674      -0.23355398      566        2      -1.20000000      -1.20000000
O        1.38441627      15.02461437       6.48437997      15.99940000       0.71149595      -0.64413682       0.17794170      567        2      -1.20000000      -1.20000000
O       20.95790870      11.88266885       6.71864330      15.99940000       0.29555324       0.15667485       1.14031122      568        2      -1.20000000      -1.20000000
O        4.31583857      11.19652675       6.92067910      15.99940000       0.80858470      -0.67410316      -0.08285943      569        2      -1.20000000      -1.20000000
O        8.28852257       5.16314460       9.94865331      15.99940000       0.30298469       0.14040479      -0.15871726      570        2      -1.20000000      -1.20000000
O       17.89267108      10.44031496       7.50173879      15.99940000      -0.69120773       0.67348094      -0.29216897      571        2      -1.20000000      -1.20000000
O        7.15043628      13.19741690       2.68078469      15.99940000       0.43545212      -1.16192760       1.28048630      572        2      -1.20000000      -1.20000000
O       19.07230334       3.07610825      20.64851178      15.99940000       0.36134715      -0.81387237      -0.01917955      573        2      -1.20000000      -1.20000000
O        7.64458901      11.76823803      20.28436432      15.99940000      -0.13028798      -0.30516310      -0.01253100      574        2      -1.20000000      -1.20000000
O       16.99830057      20.95215321      15.40191333      15.99940000       0.17375733      -0.35319801       0.65656232      575        2      -1.20000000      -1.20000000
O        7.18576516       3.64616584       0.50467035      15.99940000      -0.33839951      -0.16218288      -0.01982543      576        2      -1.20000000      -1.20000000
O        4.79963802       0.95200192      12.88713744      15.99940000      -0.32249432      -0.79855053       0.72037984      577        2      -1.20000000      -1.20000000
O       16.87737321       2.10215558      15.87456628      15.99940000      -0.20620874       0.16178778       0.67777070      578        2      -1.20000000      -1.20000000
O       10.37498772      15.44966602      10.56947648      15.99940000       0.59666990       0.38040462       0.37809214      579        2      -1.20000000      -1.20000000
O       15.53733601       4.85716009      11.52254326      15.99940000      -0.30368589      -0.54980194       1.02871211      580        2      -1.20000000      -1.20000000
O       15.23734495      16.02482941      17.75982935      15.99940000      -0.03645604       0.08327298      -0.27145730      581        2      -1.20000000      -1.20000000
O       14.01888664      14.10029983      11.70754760      15.99940000      -0.46046307      -0.54756593      -0.40563412      582        2      -1.20000000      -1.20000000
O       12.84131982      17.56554870      21.84029588      15.99940000      -0.50954006      -0.35557604      -0.12034377      583        2      -1.20000000      -1.20000000
O        9.85090356       0.06782706      11.77491023      15.99940000       0.31247924       0.87378748       1.09928786      584        2      -1.20000000      -1.20000000
O        3.11194153      16.67296745      14.04187845      15.99940000      -0.36894365       0.36018633       1.51836098      585        2      -1.20000000      -1.20000000
O       11.72180799      20.01375947      13.09164340      15.99940000      -0.15448403      -0.76955826       0.47178331      586        2      -1.20000000      -1.20000000
O       14.13774218       2.84587229      12.24122001      15.99940000      -0.58518584      -0.38840504       0.52453651      587        2      -1.20000000      -1.20000000
O       11.91254510       6.05974339       8.17663571      15.99940000      -0.31070972       0.19169300       0.90324437      588        2      -1.20000000      -1.20000000
O        1.75783816      12.64682356      18.55071218      15.99940000      -0.48346157       0.14455044      -0.70258336      589        2      -1.20000000      -1.20000000
O        7.64359086      13.94254839       0.28249837      15.99940000      -0.10422165       0.03757786       0.03149542      590        2      -1.20000000      -1.20000000
O       12.29026224      12.48967185      12.97703247      15.99940000      -0.48140378       0.67556019      -0.09059852      591        2      -1.20000000      -1.20000000
O       17.69231632      15.63388895       7.55590021      15.99940000       0.71452788      -0.08034089      -0.38776229      592        2      -1.20000000      -1.20000000
O       21.68028481      18.73789416       3.56038802      15.99940000      -0.05256646       0.12979579       0.92682542      593        2      -1.20000000      -1.20000000
O       10.57477052       7.21383495      12.77458652      15.99940000       0.55306121      -0.53923054       0.77651741      594        2      -1.20000000      -1.20000000
O       11.48542054      20.86148830       7.78585600      15.99940000       0.22581523      -0.71971117      -0.95774767      595        2      -1.20000000      -1.20000000
O       18.84983939      11.38712138       2.06984443      15.99940000       0.31416260       0.28239922      -0.07043108      596        2      -1.20000000      -1.20000000
O        1.54862673       0.11781520      21.79925198      15.99940000       0.16990216      -0.09058420       0.48258468      597        2      -1.20000000      -1.20000000
O        5.69688721      10.55440089      15.17537403      15.99940000      -0.52650020      -0.10976474       0.80792100      598        2      -1.20000000      -1.20000000
O        2.53559055      18.53188354       2.77602559      15.99940000       0.59566746      -0.03636336       0.12803942      599        2      -1.20000000      -1.20000000
O       20.84104330      14.24921047       3.11118732      15.99940000      -0.15399884       0.25057871       0.24920600      600        2      -1.20000000      -1.20000000
O       17.83010908       8.20298151       5.23859490      15.99940000      -0.14273220       0.12625691       0.27743060      601        2      -1.20000000      -1.20000000
O        3.60301058       7.01057536      16.21945300      15.99940000      -0.15635737       0.73343454       1.10517410      602        2      -1.20000000      -1.20000000
O        7.38778372      21.50097469       7.89833134      15.99940000      -0.93140883      -0.23061255       0.45745712      603        2      -1.20000000      -1.20000000
O        1.71422784      14.51138350       9.52888487      15.99940000       0.14052123      -0.00746221      -1.44071563      604        2      -1.20000000      -1.20000000
O        4.16944687      11.59320249      20.98297271      15.99940000      -0.10960226      -0.08719488      -0.10799959      605        2      -1.20000000      -1.20000000
O       19.03483687       2.02052584      11.10741814      15.99940000      -0.05469229       0.15216161       0.56225577      606        2      -1.20000000      -1.20000000
O       20.38985000      10.35135966      16.28094535      15.99940000       1.38725797      -0.26690979       0.04540054      607        2      -1.20000000      -1.20000000
O        1.81203217      13.89002117       3.40998515      15.99940000       0.05834529       0.06156908      -0.51619449      608        2      -1.20000000      -1.20000000
O       15.08325852       6.28333518      15.85778081      15.99940000      -0.18301792      -0.15041727       0.17947146      609        2      -1.20000000      -1.20000000
O        6.00590769       3.11510328      16.48651926      15.99940000       0.17479682       0.29992226       0.66791657      610        2      -1.20000000      -1.20000000
O       19.69894010      19.87596714      15.83030478      15.99940000      -0.22847521      -0.92945239       0.63794009      611        2      -1.20000000      -1.20000000
O       16.90675946      10.40460335      12.14652711      15.99940000      -0.09157482       0.18708815      -0.07428343      612        2      -1.20000000      -1.20000000
O       10.53319952      13.44960146       0.75397588      15.99940000      -0.53370315      -0.11046118       0.37131075      613        2      -1.20000000      -1.20000000
O        2.77096279       5.40973640      14.09117990      15.99940000      -0.21568640      -0.23479521      -0.41060184      614        2      -1.20000000      -1.20000000
O       15.60322202      14.88500069      13.99456750      15.99940000      -0.36256255       0.97900013      -0.21705431      615        2      -1.20000000      -1.20000000
O       19.71368163       2.59600430      13.67563031      15.99940000       0.58794393       0.42399410      -1.14732743      616        2      -1.20000000      -1.20000000
O       19.24206430      16.35471001       2.90788794      15.99940000      -0.43776714      -1.20577426       0.34040388      617        2      -1.20000000      -1.20000000
O        9.42189082      19.44780073       8.73597379      15.99940000      -0.91989607       0.50941047      -0.27935557      618        2      -1.20000000      -1.20000000
O        1.41016610       4.09372524      19.02235644      15.99940000       1.47319680      -1.41336269       0.10275076      619        2      -1.20000000      -1.20000000
O       13.91380941      13.08589748      14.98776148      15.99940000      -0.63481381      -0.37680352      -0.72808672      620        2      -1.20000000      -1.20000000
O        1.81414591      17.01632449       4.81278385      15.99940000       0.20240577       0.07961483       0.39083453      621        2      -1.20000000      -1.20000000
O       15.21734456      20.65942638      18.32377424      15.99940000       0.54170540       0.65805199      -0.75677840      622        2      -1.20000000      -1.20000000
O       14.82084247      17.26518027      12.96838418      15.99940000       1.08360907      -0.04960643       0.63246359      623        2      -1.20000000      -1.20000000
O        6.89301620       2.33901662       8.72300465      15.99940000      -0.92610036      -0.58859908       0.32634260      624        2      -1.20000000      -1.20000000
O        4.02149874      10.18756530      18.26802937      15.99940000      -0.02384641       0.60994044       0.18902418      625        2      -1.20000000      -1.20000000
O       15.99855982      17.14740771      15.41487139      15.99940000      -0.28301315      -1.26565333       0.51258863      626        2      -1.20000000      -1.20000000
O       15.62694814      16.28114707      21.50278195      15.99940000      -0.57158429       0.39795214      -1.54870406      627        2      -1.20000000      -1.20000000
O        8.26704572      14.21318051      19.98774419      15.99940000       0.01446604       0.06200253       0.75913712      628        2      -1.20000000      -1.20000000
O        3.74156179      20.63239636      13.57627905      15.99940000      -0.51192154      -0.26559724       0.76813673      629        2      -1.20000000      -1.20000000
O       21.14274397       6.54302921       1.11745984      15.99940000       0.53390368      -0.28803342       1.75365406      630        2      -1.20000000      -1.20000000
O        8.29584665      12.53990543      15.00841072      15.99940000      -0.33405755      -0.00821041      -0.99577825      631        2      -1.20000000      -1.20000000
O       11.62179420       2.65591376      12.81545800      15.99940000      -0.38966256       0.28505383      -0.54204717      632        2      -1.20000000      -1.20000000
O        8.12147172       6.32004577      13.01657788      15.99940000      -0.31395526      -0.31219208       0.88068363      633        2      -1.20000000      -1.20000000
O       14.04798265       5.47636852      13.58744674      15.99940000       0.37304859      -0.93835911      -0.43413522      634        2      -1.20000000      -1.20000000
O        8.07855953       6.85838598       7.87058564      15.99940000       0.32800331       0.09653410      -0.53680082      635        2      -1.20000000      -1.20000000
O        4.09837888       4.30011517       0.62755864      15.99940000       0.04932887      -0.70770485       1.14610489      636        2      -1.20000000      -1.20000000
O       10.69796862       4.37447338      17.26486468      15.99940000       0.45890653      -0.30540370       1.20736133      637        2      -1.20000000      -1.20000000
O        4.09771595      14.24566307       7.36426506      15.99940000      -0.08493704      -0.28752720       0.20447464      638        2      -1.20000000      -1.20000000
O        7.77904484      14.18439671       8.04845690      15.99940000       0.27222780       0.48362222       0.01681935      639        2      -1.20000000      -1.20000000
O       11.63832223      20.14105571      10.35856398      15.99940000      -0.29690784      -0.09906284      -0.18082918      640        2      -1.20000000      -1.20000000
O        7.73120264       4.22492797       6.85749440      15.99940000      -0.06752972      -0.33452731      -0.00918040      641        2      -1.20000000      -1.20000000
O        4.32774891      14.98814884      17.03801496      15.99940000      -0.54111531       0.01027503       0.48077657      642        2      -1.20000000      -1.20000000
O       15.36233651      11.35704254       9.01758595      15.99940000       0.86573072      -0.06405604      -1.17607734      643        2      -1.20000000      -1.20000000
O        4.63096370      20.01625128       2.01063605      15.99940000       0.05270359       0.35568161       0.10942259      644        2      -1.20000000      -1.20000000
O       18.00105463       9.32798354       9.92241781      15.99940000       1.39087823      -0.39639720       0.95797655      645        2      -1.20000000      -1.20000000
O       17.13693232       1.61786564       9.32003206      15.99940000      -0.26711319      -1.04980643       0.45120248      646        2      -1.20000000      -1.20000000
O        1.63366133       2.53166309       4.87699831      15.99940000      -0.48326016      -0.41395267      -0.10512288      647        2      -1.20000000      -1.20000000
O        1.27543712      14.77275581      14.19644053      15.99940000       1.26253520       0.19863602      -1.13764873      648        2      -1.20000000      -1.20000000
O        2.78015510       8.37984120      12.46163322      15.99940000       0.23526848       0.03230825       0.51616699      649        2      -1.20000000      -1.20000000
O       17.69027091      20.58036292      19.39883272      15.99940000      -0.11381885       0.15743774       0.33288884      650        2      -1.20000000      -1.20000000
O        3.21509177      12.01163857       4.65071598      15.99940000       0.18273668       0.02502898      -0.37237675      651        2      -1.20000000      -1.20000000
O        5.65103175       5.12333444      14.56898694      15.99940000      -0.19444476       0.80792900      -0.30011208      652        2      -1.20000000      -1.20000000
O       17.83023999      20.08521594      12.36737382      15.99940000      -0.42627494       0.33697310       0.71300517      653        2      -1.20000000      -1.20000000
O        7.18453014      10.15529578      10.70873008      15.99940000       0.06070074      -0.14161108       0.09322750      654        2      -1.20000000      -1.20000000
O       17.91051315       2.14051772      18.44078256      15.99940000      -1.33006973       0.73398869       0.87742703      655        2      -1.20000000      -1.20000000
O       16.10623290      19.03504946       6.66323569      15.99940000       0.85599605       0.13927893       0.57373798      656        2      -1.20000000      -1.20000000
O        3.88298220      13.36104816      10.50294436      15.99940000      -0.48432356       0.29143112      -0.08582126      657        2      -1.20000000      -1.20000000
O        9.86105297      17.02240673       3.91180839      15.99940000       1.34344453      -0.60589643       0.57515395      658        2      -1.20000000      -1.20000000
O        8.44963190       1.71705881       6.80946656      15.99940000       0.67891278      -0.02569448      -0.72280403      659        2      -1.20000000      -1.20000000
O        8.44712416      11.77638933      17.63885312      15.99940000      -0.56254444      -0.04656170      -0.01431051      660        2      -1.20000000      -1.20000000
O        0.53758831      13.27725217      20.74593558      15.99940000       1.08569555       0.69152487       0.04209741      661        2      -1.20000000      -1.20000000
O       10.57524974       9.28658713      16.24254002      15.99940000       0.68834687       0.20556489       0.91577062      662        2      -1.20000000      -1.20000000
O        4.83833197      15.88874704       3.79984009      15.99940000       0.52819674       0.20570532       1.13836722      663        2      -1.20000000      -1.20000000
O       16.79503193      20.99624462       8.38626674      15.99940000      -1.24261533       0.44454047       0.08170677      664        2      -1.20000000      -1.20000000
O       18.60883355      19.55460135       7.23654863      15.99940000      -0.83771847      -0.48322232       0.98535703      665        2      -1.20000000      -1.20000000
O       17.79833667       5.74748673      16.05925367      15.99940000      -0.20821709      -0.92981441      -0.26648035      666        2      -1.20000000      -1.20000000
O        5.60378410      17.29865192      21.09283686      15.99940000       0.00425401      -0.02470975       0.43132694      667        2      -1.20000000      -1.20000000
O       12.57337966       2.22198585      10.28439687      15.99940000      -0.52413877       0.33576651      -0.15870275      668        2      -1.20000000      -1.20000000
O       20.96905307       8.78607822       5.67696613      15.99940000      -0.09693699      -0.46427418       0.83072146      669        2      -1.20000000      -1.20000000
O       14.03892113      10.15440070      20.90345003      15.99940000       0.27573483       0.51710811       0.17249463      670        2      -1.20000000      -1.20000000
O        2.20186738       9.92521164       5.94159387      15.99940000       0.20516119      -0.10939421      -0.42615962      671        2      -1.20000000      -1.20000000
O        0.57526709       6.54732495       6.28056147      15.99940000      -0.90508756       0.18159084      -0.19149005      672        2      -1.20000000      -1.20000000
O        5.29644134      20.34466892      11.49490620      15.99940000       0.72348948       0.18416750       0.17471613      673        2      -1.20000000      -1.20000000
O       11.39660263      13.17561661      15.52983696      15.99940000       0.51112259      -1.03168159      -0.83846289      674        2      -1.20000000      -1.20000000
O        4.02207745      14.16933881      13.59246471      15.99940000      -0.73995983       0.42670309      -0.72170910      675        2      -1.20000000      -1.20000000
O       20.21714683      20.73574390      18.38924761      15.99940000      -1.14083471       0.51492102      -0.20230107      676        2      -1.20000000      -1.20000000
O       18.57012457      15.78531515      13.67612273      15.99940000       0.34370578       1.35210462       0.12785364      677        2      -1.20000000      -1.20000000
O       22.17943763      16.92001118      19.59937942      15.99940000      -0.20066704       1.11440222       0.54933468      678        2      -1.20000000      -1.20000000
O       18.78990693       6.74535150       2.34491778      15.99940000       0.36371651      -0.22494458      -0.79082092      679        2      -1.20000000      -1.20000000
O        6.07573261       9.38661255       7.89225309      15.99940000       0.45306315       0.62008926      -0.23938073      680        2      -1.20000000      -1.20000000
O        9.57379082       8.58212266       0.85591836      15.99940000       0.48843649       0.91290176       0.13668697      681        2      -1.20000000      -1.20000000
O       19.66073835       2.16819795       8.50853646      15.99940000       0.83831571      -0.42084826       0.23224349      682        2      -1.20000000      -1.20000000
O       10.61136418      18.16708743      20.93292350      15.99940000       0.62483998       0.41030351       0.48207735      683        2      -1.20000000      -1.20000000
O        7.66931511       0.30909335      13.10599628      15.99940000      -1.37841411       0.23795117       0.09384078      684        2      -1.20000000      -1.20000000
O       19.52258462      14.96505625       5.81849605      15.99940000      -0.53066227      -0.15276710      -0.64820473      685        2      -1.20000000      -1.20000000
O        3.05948191      13.93391311      21.10867178      15.99940000      -0.09512904      -0.36438929      -0.57213590      686        2      -1.20000000      -1.20000000
O       20.40738798      14.60646335      15.06068214      15.99940000       0.32010869      -0.74009967       1.06074854      687        2      -1.20000000      -1.20000000
O       13.70587216       7.71989452      20.20701845      15.99940000       1.25547519       0.09498798       0.74442708      688        2      -1.20000000      -1.20000000
O        7.15947043      18.80340104       7.39080379      15.99940000      -1.42502589      -0.01935205       0.67705478      689        2      -1.20000000      -1.20000000
O        6.58117649       5.95291345       1.74522585      15.99940000      -1.44535290      -0.58113152       0.42913706      690        2      -1.20000000      -1.20000000
O        8.92014023       7.82295794      17.53896652      15.99940000       0.58171334      -0.62803573       0.42897590      691        2      -1.20000000      -1.20000000
O       13.28062190       7.92665190      14.53935373      15.99940000      -0.14621324       0.38158496      -0.06786232      692        2      -1.20000000      -1.20000000
O       11.76416658      12.92930422       3.05760217      15.99940000       0.39116369       0.98122553       0.67700504      693        2      -1.20000000      -1.20000000
O       21.82668546      18.21900843      21.87974512      15.99940000      -0.54227352       0.47981352      -0.36919622      694        2      -1.20000000      -1.20000000
O        5.91797767      17.91677197      10.52252779      15.99940000      -0.15265302      -0.42802805      -1.11176514      695        2      -1.20000000      -1.20000000
O        1.46695940       9.14301616      10.33154068      15.99940000       0.28522268      -0.04718565      -0.03126085      696        2      -1.20000000      -1.20000000
O        1.16345704       9.43270068       0.72264300      15.99940000       0.84281701      -0.51201033      -0.10129955      697        2      -1.20000000      -1.20000000
O        4.36389674      10.79317645       9.57206561      15.99940000      -0.25254429       0.71995510       0.60525892      698        2      -1.20000000      -1.20000000
O        7.64480952       1.17073878      15.67046539      15.99940000      -0.25615632      -0.64230062      -0.11291540      699        2      -1.20000000      -1.20000000
O       21.55718049       4.09232404       5.97128310      15.99940000      -0.20669662       0.72135536       0.03779538      700        2      -1.20000000      -1.20000000
O       21.28300013      21.19575520       0.69629250      15.99940000      -0.04726032       0.26649990      -0.07415253      701        2      -1.20000000      -1.20000000
O        3.02338428       5.12457864      21.12250715      15.99940000      -0.27137535      -0.05856325       0.68521021      702        2      -1.20000000      -1.20000000
O       12.45544500      14.97527691       1.60096465      15.99940000      -0.78789105       0.07601179      -0.53354086      703        2      -1.20000000      -1.20000000
O        5.91492707       5.72210935      17.00870328      15.99940000      -0.37698326      -1.09462859       0.01141747      704        2      -1.20000000      -1.20000000
O       20.55483905      21.12797186       4.03655578      15.99940000      -0.93085355      -0.41154057       1.00181460      705        2      -1.20000000      -1.20000000
O       15.65194292      16.11502026      10.83231183      15.99940000      -0.47050894       0.06137362       0.33912760      706        2      -1.20000000      -1.20000000
O        8.30128097      17.03229426      21.40930038      15.99940000      -1.00081433       0.02898306      -0.23631343      707        2      -1.20000000      -1.20000000
O        9.27617149       2.19632498      13.85710229      15.99940000       0.46025864      -0.04563548      -0.59511930      708        2      -1.20000000      -1.20000000
O        7.11896851      19.45469349      21.12165417      15.99940000       0.93296120       1.74623547       1.87183849      709        2      -1.20000000      -1.20000000
O       14.13100447      17.48113089       5.48299142      15.99940000       0.63260889       0.59258426      -0.46228153      710        2      -1.20000000      -1.20000000
O        5.76370375      13.59509671      20.93690241      15.99940000      -1.15776468      -1.03761599      -0.15547841      711        2      -1.20000000      -1.20000000
O       16.32839520      13.56072756      16.05100934      15.99940000       0.61599658      -0.59167309       0.80310598      712        2      -1.20000000      -1.20000000
O       11.08149870       5.93413210       3.15351827      15.99940000      -0.04453962       0.01480454      -0.62809786      713        2      -1.20000000      -1.20000000
O       20.79264555      16.42177739       9.05953370      15.99940000       0.60134090       0.22333075       0.18254995      714        2      -1.20000000      -1.20000000
O        4.47253237       7.00797204       0.80411397      15.99940000       0.85978039      -0.80342566       0.10744539      715        2      -1.20000000      -1.20000000
O        6.62009053       2.56743973      13.72514799      15.99940000       0.91029892       0.48302124       0.39472580      716        2      -1.20000000      -1.20000000
O        1.56217674       4.13980672      12.26070217      15.99940000       0.84818520       0.79878398       0.47989133      717        2      -1.20000000      -1.20000000
O       19.27374987      12.55176942      11.37666699      15.99940000      -1.06051939       0.40056186      -0.08405402      718        2      -1.20000000      -1.20000000
O        9.54492827      15.29566130       5.95364008      15.99940000       0.17844951       0.26141834       1.15642734      719        2      -1.20000000      -1.20000000
O        5.98669626       7.91496718      15.54151722      15.99940000       0.54522231       0.09561426       0.78071503      720        2      -1.20000000      -1.20000000
O        4.17987272       0.49086682       6.87939887      15.99940000       0.82566275       0.94963625      -0.51471364      721        2      -1.20000000      -1.20000000
O        8.15418344       9.22604396      15.28516900      15.99940000       0.20696366       1.07060619       0.44762655      722        2      -1.20000000      -1.20000000
O        9.00280463       2.06296085      20.41649147      15.99940000      -1.39282647      -0.28210562       0.84776665      723        2      -1.20000000      -1.20000000
O       18.49653794      17.53858942       9.93387492      15.99940000       0.17864171      -0.02902867      -0.79663004      724        2      -1.20000000      -1.20000000
O       12.05483789      11.93910213      20.37483505      15.99940000      -0.17936739       0.63590965       0.36571722      725        2      -1.20000000      -1.20000000
O        0.95395326       4.00732415      21.72620770      15.99940000      -1.49199239      -0.39032723       0.55877907      726        2      -1.20000000      -1.20000000
O        1.49069864      10.43825978      20.93224519      15.99940000      -0.03867760      -0.43824799      -0.88391269      727        2      -1.20000000      -1.20000000
O        4.17876820      19.46424861      20.46961227      15.99940000      -0.73379454       0.84557351      -0.59386682      728        2      -1.20000000      -1.20000000
O       13.55273808      10.37538991       3.94185551      15.99940000       0.04030773      -0.33789455      -0.24478127      729        2      -1.20000000      -1.20000000
O        6.81837746      13.51217409       5.21507669      15.99940000      -0.30657630      -0.02132703       0.84702233      730        2      -1.20000000      -1.20000000
O        3.37306718      16.59115525       6.80656326      15.99940000       0.30203564      -0.56785237       0.31333559      731        2      -1.20000000      -1.20000000
O       15.43173535      20.59556530      13.21512574      15.99940000      -0.33381447       1.10397807      -0.25874995      732        2      -1.20000000      -1.20000000
O        2.68320186      11.09104541      14.68358657      15.99940000      -1.00102386       0.03114450      -0.12726285      733        2      -1.20000000      -1.20000000
O       13.17295967       3.50946306      17.47056860      15.99940000      -0.83959248      -0.10912495      -0.29013925      734        2      -1.20000000      -1.20000000
O        3.64591820      10.05928643       0.64193103      15.99940000       0.22487540      -0.11665711      -0.67171618      735        2      -1.20000000      -1.20000000
O       11.95421370      13.40706970      10.38255629      15.99940000       0.36313715      -1.09475445      -1.01220734      736        2      -1.20000000      -1.20000000
O        1.74171528       0.45462496      15.27934613      15.99940000       0.18999916      -0.04803402       0.90384344      737        2      -1.20000000      -1.20000000
O        2.27853341       2.55029578      17.00081642      15.99940000      -0.25368475      -0.78717872      -0.41178482      738        2      -1.20000000      -1.20000000
O        1.94470267       5.11251015      16.57893308      15.99940000       0.03321978       0.66443269      -0.00751509      739        2      -1.20000000      -1.20000000
O        8.09881636       2.34469808      18.01867022      15.99940000       1.20769105       0.08217019      -0.00837299      740        2      -1.20000000      -1.20000000
O       20.26081193      21.46459076       7.66673909      15.99940000       0.69970807      -0.76096810       0.28797231      741        2      -1.20000000      -1.20000000
O        2.34112788       9.14593182       2.91567402      15.99940000      -0.84926398      -1.07328064      -0.94407471      742        2      -1.20000000      -1.20000000
O        9.44324110       3.17084640      11.48099831      15.99940000      -0.10028920      -0.55997480       1.62101358      743        2      -1.20000000      -1.20000000
O        9.39206415      17.85652047       6.48655329      15.99940000      -0.47187334       1.36886866       0.34856948      744        2      -1.20000000      -1.20000000
O       19.58009998       6.56332174      10.44750253      15.99940000      -0.42127731       0.52668305      -0.23321829      745        2      -1.20000000      -1.20000000
O        9.70613410       9.36168852      11.31741910      15.99940000       0.87768860      -0.27099195       0.95677707      746        2      -1.20000000      -1.20000000
O       12.07610075       7.68463779       0.63981485      15.99940000       0.28377662      -0.60396184      -1.07554134      747        2      -1.20000000      -1.20000000
O       15.41013784      13.89255500       9.47418754      15.99940000      -0.19898151      -0.32140802       0.03317098      748        2      -1.20000000      -1.20000000
O       19.19112538       0.53854103      20.16089578      15.99940000       0.13565190      -0.42244358       0.13138270      749        2      -1.20000000      -1.20000000
O        5.14390350       7.80347479       3.08136859      15.99940000      -0.55861544       0.06016090      -0.50148392      750        2      -1.20000000      -1.20000000
O        3.42172423       1.86299454       0.45469959      15.99940000      -0.89420124      -0.17045730       1.01112604      751        2      -1.20000000      -1.20000000
O        6.37405983      11.98967316       8.39437501      15.99940000       0.48875308       1.06832647      -0.04120184      752        2      -1.20000000      -1.20000000
O       17.59038154      11.47580992      16.77880969      15.99940000      -1.32183896       1.10355661       0.70866390      753        2      -1.20000000      -1.20000000
O       20.87910173      18.97996064       8.50831137      15.99940000       0.54440537      -0.64136789      -0.06767631      754        2      -1.20000000      -1.20000000
O        9.43947107      16.65323488      18.18183927      15.99940000      -1.02881358      -0.14255119      -0.69266697      755        2      -1.20000000      -1.20000000
O        7.22790500      18.90448249      13.98359631      15.99940000      -0.14762935      -0.48417630      -0.75234533      756        2      -1.20000000      -1.20000000
O        4.45666034      19.53756365       8.98309754      15.99940000       0.13536323      -0.75774265       1.12208431      757        2      -1.20000000      -1.20000000
O        7.39199163      10.95442014       4.37586999      15.99940000       0.61397629       0.98398594      -0.19261453      758        2      -1.20000000      -1.20000000
O        8.50235191       5.90287643       4.87264913      15.99940000      -1.31431958      -0.27448366      -0.07784181      759        2      -1.20000000      -1.20000000
O       15.86777942       3.58127856      13.91621882      15.99940000      -0.61434445       1.36606201       1.15598980      760        2      -1.20000000      -1.20000000
O        5.11473733       7.88059133      18.20799455      15.99940000      -0.00590119       0.59679608      -0.62128664      761        2      -1.20000000      -1.20000000
O        9.16383108       9.54881508       8.71925718      15.99940000      -0.57140838       0.04154567       1.08845537      762        2      -1.20000000      -1.20000000
O        8.34083289      16.82927096       8.58486957      15.99940000       0.35714910      -0.81616273       0.02080654      763        2      -1.20000000      -1.20000000
O       21.13655052       1.58694461       6.36677483      15.99940000      -0.43923689       0.58566048       0.06827989      764        2      -1.20000000      -1.20000000
O       18.55220309      13.52135284      17.85923826      15.99940000      -0.35131403       0.00316676       0.14979036      765        2      -1.20000000      -1.20000000
O       19.88606415      18.28538578      17.77859052      15.99940000      -0.17556107      -0.44248016      -0.53818670      766        2      -1.20000000      -1.20000000
O       12.75528239      20.63500427      17.67259915      15.99940000      -0.83812146       0.34637217       0.30853403      767        2      -1.20000000      -1.20000000
O       17.47254373       8.87273325      17.46026618      15.99940000      -0.85664449       1.12968297      -0.81080034      768        2      -1.20000000      -1.20000000
O        9.01482638       5.03210800       1.93828520      15.99940000       0.30011141      -0.38401667      -0.93826109      769        2      -1.20000000      -1.20000000
O       19.44966098       0.08784412      12.79904058      15.99940000       1.14715956      -0.65456308       0.29709207      770        2      -1.20000000      -1.20000000
O        4.21030238       5.03785942       7.22359614      15.99940000      -0.72869897      -0.24711599      -0.47171503      771        2      -1.20000000      -1.20000000
O       15.77149025      13.60460529      21.56867571      15.99940000      -0.49944597       0.18760003      -0.13314901      772        2      -1.20000000      -1.20000000
O       20.69982515      17.10041236      14.18433679      15.99940000       0.35801145      -0.33806192      -0.16381044      773        2      -1.20000000      -1.20000000
O       19.43687808      20.55108101      10.51544812      15.99940000      -0.25185346      -0.53795733      -0.12299599      774        2      -1.20000000      -1.20000000
O       11.16086279      10.39454776       7.24891737      15.99940000       0.52246989       0.00184457       0.39435872      775        2      -1.20000000      -1.20000000
O        9.58155195      20.34796678       3.22841026      15.99940000      -0.32409927      -0.51876270      -0.51537708      776        2      -1.20000000      -1.20000000
O        5.96649434       6.39895977       9.32213438      15.99940000       1.06103979       0.14731262      -0.88196705      777        2      -1.20000000      -1.20000000
O       14.80372504       9.74628134      13.47077813      15.99940000       0.80911451      -0.32160510      -0.27681040      778        2      -1.20000000      -1.20000000
O        6.40928839       2.73413115      19.79761856      15.99940000      -0.61852995       1.15010055      -1.02658112      779        2      -1.20000000      -1.20000000
O        2.41818188      11.58156615       2.14182198      15.99940000       0.60940221      -0.15823702      -0.04485866      780        2      -1.20000000      -1.20000000
O        6.10471498      15.22977404      15.09860607      15.99940000       0.02727731      -0.92879679       0.64857783      781        2      -1.20000000      -1.20000000
O       14.10797295       3.37423061      19.88252548      15.99940000       0.08714190       1.18155555      -0.17969566      782        2      -1.20000000      -1.20000000
O       20.87980943      19.48088173       5.92030163      15.99940000      -0.10986434       0.47902065      -0.13050609      783        2      -1.20000000      -1.20000000
O       15.43922149       8.20386693      22.11167485      15.99940000      -0.55755201      -0.19526857      -0.02617189      784        2      -1.20000000      -1.20000000
O       11.61599900       9.66670038      21.76307812      15.99940000       0.56852930       0.79006792      -0.20368715      785        2      -1.20000000      -1.20000000
O       18.67423165       7.60116913      19.26681548      15.99940000       0.08985431       0.12038927       0.85985495      786        2      -1.20000000      -1.20000000
O       16.18474076      12.77043668       7.13810705      15.99940000      -0.77274752      -0.52183026      -0.75017087      787        2      -1.20000000      -1.20000000
O        1.10445655      15.59754959      21.81297135      15.99940000      -0.06187041       0.14493650       0.48641454      788        2      -1.20000000      -1.20000000
O       15.27552515      -0.20965825      20.70906241      15.99940000      -0.99091996       1.19009060       0.45560444      789        2      -1.20000000      -1.20000000
O        4.15462681      -0.12265410      15.92953005      15.99940000       1.86416648      -0.05332254       1.13850990      790        2      -1.20000000      -1.20000000
O        3.81098638       4.82222137       9.83372095      15.99940000       1.09560481      -0.91868749       0.24464532      791        2      -1.20000000      -1.20000000
O       14.56689619      21.51946507       3.53905775      15.99940000       0.02680223      -0.24182096       0.13968033      792        2      -1.20000000      -1.20000000
O       17.89620906       4.78370688       0.78186723      15.99940000       0.37545679       0.64546657       0.28260275      793        2      -1.20000000      -1.20000000
O       10.94800415       0.74196751      21.50820516      15.99940000      -0.46188103       0.31453123       1.84039126      794        2      -1.20000000      -1.20000000
O        7.66477459      11.34565811      12.81189772      15.99940000      -0.39058615       0.04588264      -1.18510389      795        2      -1.20000000      -1.20000000
O       11.42481828      15.75366547      16.37748859      15.99940000      -0.78692437      -0.31420477       0.74662507      796        2      -1.20000000      -1.20000000
O        9.63276372       6.95374445      15.11982571      15.99940000      -2.29561495       0.16526880      -1.52492706      797        2      -1.20000000      -1.20000000
O        6.86237666      15.46470104      10.23656273      15.99940000      -0.27937262      -0.07927282       0.37341882      798        2      -1.20000000      -1.20000000
O       20.55065713      16.73926796      11.57027490      15.99940000      -0.29812013      -0.00645649       0.10434639      799        2      -1.20000000      -1.20000000
O       10.65458707      15.56493726      21.14949550      15.99940000      -0.08527120       0.50969884      -0.72838363      800        2      -1.20000000      -1.20000000
O       10.33895537       0.31857946      18.97710729      15.99940000      -0.31064186      -0.05388402      -0.12255727      801        2      -1.20000000      -1.20000000
